# GHz S RI R 50

4.500000000000001e-02  2.3551944111591148e-02 -2.1839145436589849e-03 -5.8642572363636365e+00  2.4414032498356963e-01 -4.3585903062206958e-04 -7.7223779424555805e-04  8.8090903824967742e-03 -1.0128976078039861e-02
2.947750000000000e-01  2.2974963994427656e-02 -3.1652445407352667e-03 -5.5917974443966649e+00  9.7876034027708758e-01 -8.3562021857836122e-05  5.0917282674341739e-05 -1.1461735493068526e-02 -1.0211468649967538e-02
5.445500000000000e-01  2.2012709855235190e-02  1.4591220302295752e-04 -5.3884282911690109e+00  1.6030269471199652e+00 -9.0830055701789612e-05  2.0978602694009366e-04 -1.2116432698825372e-02 -4.1513443540948615e-03
7.943250000000001e-01  2.9779434264511833e-02  2.1085738173458038e-03 -5.1867682179874359e+00  2.2346189655261761e+00 -3.2305722043583218e-05  3.9626656994480190e-04 -6.9770827766449791e-03 -3.8568982061461979e-03
1.044100000000000e+00  3.9339058422938673e-02 -3.7002557475007518e-03 -4.9206546365194672e+00  2.9008794060571370e+00  4.6581009161383586e-05  5.4109092975819137e-04 -9.4127697082397222e-04 -9.4313634694585518e-03
1.293875000000000e+00  4.4603343875256662e-02 -1.5087126535310894e-02 -4.5356442255201275e+00  3.5791012605516741e+00  8.8304317908292600e-05  6.9338082188585555e-04  2.6750565107346420e-03 -2.0849231434929959e-02
1.543650000000000e+00  4.5154566080445740e-02 -2.6296612740022016e-02 -4.0129399428531229e+00  4.2077633145873676e+00  2.6604532859508492e-04  7.2219975384122184e-04 -3.1662151460713067e-04 -3.7036895909154627e-02
1.793425000000000e+00  4.3298721475848095e-02 -3.6422729980033104e-02 -3.3591308689617492e+00  4.7497556277988426e+00  4.3028596708856887e-04  8.3661091990210057e-04 -1.5291211660736053e-02 -5.2267076792416808e-02
2.043200000000001e+00  4.0338514707979063e-02 -4.5627594651894039e-02 -2.5952151542505462e+00  5.1257322510885919e+00  5.9017544836664391e-04  8.8050965888047722e-04 -4.0706633934331347e-02 -5.3106311427774965e-02
2.292975000000000e+00  3.6682126453881629e-02 -5.3876877285571743e-02 -1.8486331810598617e+00  5.3083497259215511e+00  6.4489255357086329e-04  9.4559797794628207e-04 -5.7632443358585569e-02 -3.2991416239813158e-02
2.542750000000000e+00  3.2024385729138440e-02 -6.2500004569002121e-02 -1.1740725476662648e+00  5.3933103501139037e+00  8.4748866117907707e-04  9.6213820407828993e-04 -5.3398134689806052e-02 -9.4451982345940266e-03
2.792525000000000e+00  2.6180264994382203e-02 -7.0610036309089616e-02 -5.3955042842173728e-01  5.4616698682896780e+00  1.0479687797598641e-03  1.0820626978635644e-03 -3.7660602807952248e-02  3.0441262345439046e-03
3.042300000000000e+00  1.9542689846943934e-02 -7.8044895190643476e-02  1.1767544289107910e-01  5.4916989159017673e+00  1.3846161514559992e-03  1.1059644447084828e-03 -2.1635060039976887e-02  4.7245048306520853e-03
3.292075000000000e+00  1.1703489080778595e-02 -8.4648136253926753e-02  8.0175738283136067e-01  5.4394529308190913e+00  1.5930529734159789e-03  9.3573313281282368e-04 -1.0786534696069819e-02  1.9879337231801957e-03
3.541850000000000e+00  3.1166098884470679e-03 -9.0015396548709534e-02  1.4770507450647361e+00  5.2983397883743892e+00  1.8011930128060166e-03  8.7636719286680171e-04 -1.0926722384718580e-03 -6.3848471565678788e-04
3.791625000000000e+00 -6.7710824839424255e-03 -9.4467159118020796e-02  2.1286624743160574e+00  5.0822756121564421e+00  1.9614693798380880e-03  8.2766995217733140e-04  8.4180830854793248e-03 -6.5441129830748250e-03
4.041400000000000e+00 -1.7475129277435619e-02 -9.7381607298644549e-02  2.7641600639747494e+00  4.7790526843549328e+00  2.2658108578377735e-03  6.5660471257593779e-04  1.4297483662795891e-02 -1.5611170350628027e-02
4.291175000000000e+00 -2.8457640444377662e-02 -9.8758695511509634e-02  3.3598635488499702e+00  4.3955079589591044e+00  2.4988654863278090e-03  5.1891811022438956e-04  1.6727447065651140e-02 -2.5848388211005862e-02
4.540950000000000e+00 -3.9642327146684232e-02 -9.7953792801452041e-02  3.9002682070696837e+00  3.9281001555325603e+00  2.6795866707350021e-03  1.1372566210318289e-04  1.6023634193619261e-02 -3.6699293881540813e-02
4.790725000000000e+00 -5.0182337493771476e-02 -9.5363614194790725e-02  4.3823240487988073e+00  3.3911132387738427e+00  2.9201509027520361e-03 -1.5509127926590429e-04  1.2781145484730097e-02 -4.7756194667040987e-02
5.040500000000001e+00 -5.9726706327905485e-02 -9.1918935820251610e-02  4.7873534551879384e+00  2.7968749415093144e+00  2.9712914752559388e-03 -5.0520896160747967e-04  7.6904270761974976e-03 -5.8975221454597958e-02
5.290275000000000e+00 -6.8752284119654727e-02 -8.6101528565644611e-02  5.1064455605637713e+00  2.1457521334168086e+00  3.1212563707469681e-03 -8.4626658954413631e-04  7.4005379768110060e-04 -7.0121761084998235e-02
5.540050000000000e+00 -7.6114663691814743e-02 -7.9746258126393854e-02  5.3344729635067401e+00  1.4645996618139319e+00  3.1492703088217512e-03 -1.2538429804835117e-03 -7.2936968865520251e-03 -8.1111902560720345e-02
5.789825000000000e+00 -8.1760395962565569e-02 -7.1720126080943178e-02  5.4780271210746498e+00  7.6831051035183195e-01  3.1150573890956906e-03 -1.6721484203606727e-03 -1.6155248537133453e-02 -9.1487886904967855e-02
6.039600000000000e+00 -8.5109702416122424e-02 -6.3770298239321163e-02  5.5175783951216344e+00  5.2001950090506142e-02  3.0374528945790215e-03 -2.0943881289082378e-03 -2.5119780788468868e-02 -1.0117339071393545e-01
6.289375000000001e+00 -8.7196351733611191e-02 -5.5774680126716276e-02  5.4726563140492139e+00 -6.5429685252182512e-01  2.9333826196357520e-03 -2.5491709599793672e-03 -3.3946986644382844e-02 -1.1014176562942428e-01
6.539150000000000e+00 -8.7360378597120036e-02 -4.8309322154102843e-02  5.3508302337383924e+00 -1.3439942557240132e+00  2.8321746972412832e-03 -2.9319529644765336e-03 -4.2671194232104311e-02 -1.1804580056221950e-01
6.788925000000001e+00 -8.6059562510038351e-02 -4.1446686526646306e-02  5.1259764793977931e+00 -2.0258789174777632e+00  2.5961405572498572e-03 -3.3580072896684269e-03 -5.1372533006538906e-02 -1.2458038137603489e-01
7.038700000000000e+00 -8.2996358418822400e-02 -3.5877229451452851e-02  4.8251952566857641e+00 -2.6701659348911866e+00  2.4017098106997223e-03 -3.7176610260173746e-03 -5.9608471239390795e-02 -1.2927247386144355e-01
7.288475000000000e+00 -7.9734804078509955e-02 -3.1658181449422604e-02  4.4455565376387227e+00 -3.2590330785322625e+00  2.0449158990819495e-03 -4.1928293053780114e-03 -6.7329404860385522e-02 -1.3201139084885949e-01
7.538250000000001e+00 -7.5515742371325564e-02 -2.9106142704985499e-02  3.9840087849509822e+00 -3.8098144556224685e+00  1.6753671793526056e-03 -4.4829837126393480e-03 -7.4813852465751257e-02 -1.3311004352586966e-01
7.788025000000000e+00 -7.0381166795072891e-02 -2.8457643135723236e-02  3.4765628548735319e+00 -4.2912600203152369e+00  1.2478825268478521e-03 -4.8463331684401719e-03 -8.2054128216890579e-02 -1.3199613564554583e-01
8.037800000000001e+00 -6.5956118462125540e-02 -2.8923026210789179e-02  2.8996582066973038e+00 -4.7087405009044376e+00  7.5531018850006303e-04 -5.2099233688823882e-03 -8.9408868515121559e-02 -1.2913512692477544e-01
8.287575000000000e+00 -6.2793725442508844e-02 -3.1784052738682400e-02  2.2629396807415310e+00 -5.0515133847505300e+00  1.7070745430853581e-04 -5.4666989773720824e-03 -9.6931450887044260e-02 -1.2440490208434643e-01
8.537350000000000e+00 -5.9726723026602667e-02 -3.5820012089341047e-02  1.5979002901224586e+00 -5.3112785912565830e+00 -3.7550939352862641e-04 -5.7456486746338565e-03 -1.0433195958710703e-01 -1.1853026895606267e-01
8.787125000000001e+00 -5.8420173939104335e-02 -4.1978842780407810e-02  8.9624034921047824e-01 -5.4826656436535979e+00 -1.0828971923912115e-03 -5.8367263310335439e-03 -1.1219406734313631e-01 -1.1136245392683436e-01
9.036900000000001e+00 -5.9318543830756992e-02 -4.8547739390688550e-02  1.6992220702933372e-01 -5.5617671940812690e+00 -1.6832344418238456e-03 -5.9988484498131366e-03 -1.1976622291104140e-01 -1.0345839361730147e-01
9.286675000000001e+00 -6.2240601873622639e-02 -5.5570596038542391e-02 -5.4956074885724249e-01 -5.5544431221779424e+00 -2.5055404728838416e-03 -6.0069559823759944e-03 -1.2736511965190223e-01 -9.5130924430070402e-02
9.536450000000000e+00 -6.7802426470160701e-02 -6.1531056981789914e-02 -1.2797854550831924e+00 -5.4367676850352087e+00 -3.3040043494916146e-03 -5.8567516330668284e-03 -1.3482666623488268e-01 -8.6517323699515300e-02
9.786225000000000e+00 -7.5897218952636986e-02 -6.7398058481336537e-02 -1.9870607661431294e+00 -5.2302244905805795e+00 -4.1680329585002621e-03 -5.8298109153590164e-03 -1.4144900302873478e-01 -7.8453055216956863e-02
1.003600000000000e+01 -8.4632862435454870e-02 -7.0980075217176405e-02 -2.6569821827169524e+00 -4.9394532913176183e+00 -4.8849570177156238e-03 -5.5041306832536857e-03 -1.4791108346622467e-01 -7.1289074314021678e-02
1.028577500000000e+01 -9.5008847568807231e-02 -7.3745717586778808e-02 -3.2929686132815483e+00 -4.5439447299559523e+00 -5.7923790441236599e-03 -5.1493651645143504e-03 -1.5347289788932952e-01 -6.4041153834354075e-02
1.053555000000000e+01 -1.0742187295860879e-01 -7.3444367043510636e-02 -3.8679197910841125e+00 -4.0803222162168158e+00 -6.5081125259489744e-03 -4.4965752737895562e-03 -1.5773774231223450e-01 -5.8090223054752393e-02
1.078532500000000e+01 -1.1949156766229881e-01 -7.1331033284678505e-02 -4.3850095326507761e+00 -3.5468752451778967e+00 -7.1978588867952125e-03 -3.8547522627403017e-03 -1.6072082900805715e-01 -5.2719117939557400e-02
1.103510000000000e+01 -1.3146974813702914e-01 -6.6688531511121557e-02 -4.8249514416613852e+00 -2.9301753930006647e+00 -8.0442427640516397e-03 -3.1809800871727230e-03 -1.6228485970640669e-01 -4.8606858280919991e-02
1.128487500000000e+01 -1.4427184424025677e-01 -5.9524515800527082e-02 -5.1818843692787135e+00 -2.2731935240293710e+00 -8.5420601481121898e-03 -2.2535325172548895e-03 -1.6267396045715593e-01 -4.5326252521890376e-02
1.153465000000000e+01 -1.5483857762863304e-01 -5.0033565250899366e-02 -5.4462889431537960e+00 -1.5712887791436330e+00 -9.1619478635736589e-03 -1.4457703605357539e-03 -1.6246795195118732e-01 -4.2762768613060151e-02
1.178442500000000e+01 -1.6458129039693098e-01 -3.8490296408830629e-02 -5.6154787809845859e+00 -8.3251903993623511e-01 -9.7165102149545813e-03 -3.7670139186571220e-04 -1.6128539397706124e-01 -4.0649399364252187e-02
1.203420000000000e+01 -1.7197417137432466e-01 -2.3605366681896198e-02 -5.6953131338014158e+00 -8.1298934285986224e-02 -9.9325188508380992e-03  6.5326717738805641e-04 -1.5998077287607382e-01 -3.8711559118706287e-02
1.228397500000000e+01 -1.7673492255094886e-01 -8.7661770450953008e-03 -5.6687007900769890e+00  6.7944317647804775e-01 -1.0306357853998822e-02  2.1347986507441038e-03 -1.5872954133222156e-01 -3.7261958205221331e-02
1.253375000000000e+01 -1.7836760230855125e-01  6.8740659630728493e-03 -5.5329593354550184e+00  1.4399414962922856e+00 -1.0319232664544317e-02  3.2415389391495806e-03 -1.5729522613535551e-01 -3.5606367920397876e-02
1.278352500000000e+01 -1.7743683228006044e-01  2.2880541055656973e-02 -5.3139647604460754e+00  2.1706540842443678e+00 -1.0147095443575409e-02  4.5409202494401009e-03 -1.5647889062966197e-01 -3.4202579399111477e-02
1.303330000000000e+01 -1.7300415442698636e-01  3.7475569613848535e-02 -4.9836421192869294e+00  2.8767090690847756e+00 -9.8357191325597251e-03  6.1125752757853809e-03 -1.5673065080004858e-01 -3.2722492776181784e-02
1.328307500000000e+01 -1.6622925404872943e-01  5.1322921157593460e-02 -4.5644530476132834e+00  3.5363767677140565e+00 -9.3965516673939799e-03  7.3671321651383277e-03 -1.5727996699257180e-01 -3.1929010849748120e-02
1.353285000000000e+01 -1.5815733445135854e-01  6.3842784499017924e-02 -4.0678710742517774e+00  4.1345216766102224e+00 -9.0508447272931551e-03  8.6722384423665137e-03 -1.5953061934966653e-01 -3.0769338604809012e-02
1.378262500000000e+01 -1.4761352262088739e-01  7.2540289077933903e-02 -3.4711918348907518e+00  4.6599121506704426e+00 -8.2235346451998131e-03  1.0525704942339533e-02 -1.6342925270797543e-01 -2.9922481128060924e-02
1.403240000000000e+01 -1.3595581642389504e-01  7.8170768220159129e-02 -2.8198243196111150e+00  5.1188959903719695e+00 -6.8526267286355292e-03  1.1535166830460332e-02 -1.6846466626004919e-01 -2.9327393163373412e-02
1.428217500000000e+01 -1.2383652818533721e-01  8.3042161903037315e-02 -2.1091310268351195e+00  5.4694819831398371e+00 -5.9862127690921141e-03  1.2734412476555098e-02 -1.7464448031759486e-01 -2.8091422723324429e-02
1.453195000000000e+01 -1.1288071360445524e-01  8.3446505692487238e-02 -1.3388669396965067e+00  5.7338866348686377e+00 -4.4317234704148792e-03  1.3902660399933797e-02 -1.8166349295562098e-01 -2.6580810090818873e-02
1.478172500000000e+01 -1.0220336357990988e-01  8.1268320199336622e-02 -5.4125943748595251e-01  5.8884277547169477e+00 -2.9430393757003334e-03  1.5029431144403523e-02 -1.8987275849163407e-01 -2.5222783619285608e-02
1.503150000000000e+01 -9.5413207981275408e-02  7.6675422090712320e-02  2.8027368661590873e-01  5.9331055123637038e+00 -8.7451907864217256e-04  1.5636445307753374e-02 -1.9943238219939344e-01 -2.2270200859423158e-02
1.528127500000000e+01 -9.0061201966553761e-02  7.0430754076446375e-02  1.1096191403447517e+00  5.8615719054285522e+00  9.3746288842451800e-04  1.6153337143127711e-02 -2.0868680427820072e-01 -1.8127420607218756e-02
1.553105000000000e+01 -8.8260644659224619e-02  6.4037310727344685e-02  1.9274905152624167e+00  5.6821287704612349e+00  3.0422200603284289e-03  1.6589162379484140e-02 -2.1852876917064556e-01 -1.2962363325354255e-02
1.578082500000000e+01 -8.9252458802871124e-02  5.7991034427879284e-02  2.7253415701944377e+00  5.3718262082894146e+00  5.4512027058202595e-03  1.6563418900942803e-02 -2.2753144641193296e-01 -4.4708094064002781e-03
1.603060000000000e+01 -9.4226834836456164e-02  5.2917473468209630e-02  3.4748539072845532e+00  4.9479985098401063e+00  7.5778956101602828e-03  1.6117095283732705e-02 -2.3557280302855377e-01  4.6157646991967019e-03
1.628037500000000e+01 -1.0251236760238872e-01  4.8538201997842478e-02  4.1640623143200619e+00  4.4348143383439584e+00  1.0009765295219629e-02  1.5635491030238004e-02 -2.4288178730084500e-01  1.6555783253368008e-02
1.653015000000000e+01 -1.1182403895879189e-01  4.9327861833635731e-02  4.7641599638122170e+00  3.7910156213220065e+00  1.2390612832267603e-02  1.4861582840819971e-02 -2.4886321811944775e-01  2.9129010215716379e-02
1.677992500000000e+01 -1.2414551090609559e-01  5.3066237812288662e-02  5.2795408547637850e+00  3.0839842721041073e+00  1.4356137576894244e-02  1.3406278363758557e-02 -2.5273129588108623e-01  4.5059232836240165e-02
1.702970000000000e+01 -1.3505555649745404e-01  6.1645516501418071e-02  5.6914060067090562e+00  2.3061521396116258e+00  1.6700747102499251e-02  1.1830330830293192e-02 -2.5447082612022498e-01  6.2026967403894274e-02
1.727947500000000e+01 -1.4376830576784552e-01  7.3966983531509059e-02  5.9572754710400746e+00  1.4560547152178560e+00  1.8795965555626924e-02  9.9563587361881610e-03 -2.5382994441779277e-01  7.8765896158458290e-02
1.752925000000000e+01 -1.5064239635600654e-01  8.9248634795454890e-02  6.1320800990941384e+00  5.8007811344611016e-01  2.0302773333237580e-02  7.4634552437368397e-03 -2.5119017645664399e-01  9.6496562820983151e-02
1.777902500000000e+01 -1.5474701798755675e-01  1.0898588581006377e-01  6.1604006619625542e+00 -3.0810548472697463e-01  2.1686549531224703e-02  4.6777714392289109e-03 -2.4564357900794695e-01  1.1367035808243826e-01
1.802880000000000e+01 -1.5305330620944890e-01  1.2808227848789763e-01  6.0488279553101627e+00 -1.1867675084422575e+00  2.2825245983717900e-02  1.6994478673377092e-03 -2.3865509335598070e-01  1.3017269690187613e-01
1.827857500000000e+01 -1.4729310025532907e-01  1.4897917667664362e-01  5.8442379755016081e+00 -2.0644531316849264e+00  2.3372652650961549e-02 -1.2273790889219098e-03 -2.3021695636128178e-01  1.4430236210082475e-01
1.852835000000000e+01 -1.3751984494939215e-01  1.6947171814121262e-01  5.5014650240880600e+00 -2.8911133508777840e+00  2.3715020328616825e-02 -4.5909883041430179e-03 -2.1981813397778091e-01  1.5741731374901602e-01
1.877812500000000e+01 -1.2290953641758308e-01  1.8674467499709194e-01  5.0295414068336477e+00 -3.6630860550474580e+00  2.3094178980550849e-02 -7.6332097939252755e-03 -2.0796967552698262e-01  1.6667176874231013e-01
1.902790000000000e+01 -1.0485077081507453e-01  2.0259095260342302e-01  4.4770506472687295e+00 -4.3801268155617601e+00  2.2560119050142307e-02 -1.1068343716317345e-02 -1.9564818629347028e-01  1.7382047876248247e-01
1.927767500000000e+01 -8.4434516149539535e-02  2.1237180491514435e-01  3.8144534043518727e+00 -5.0000000974363736e+00  2.1560671688159231e-02 -1.4237405990780990e-02 -1.8412015716231897e-01  1.7843629236573433e-01
1.952745000000000e+01 -6.3018798601341020e-02  2.1969603873505811e-01  3.0661619853279887e+00 -5.5439450243892470e+00  2.0129204487924306e-02 -1.7441750558947821e-02 -1.7313384381650407e-01  1.7974852763176660e-01
1.977722500000000e+01 -4.0695172106102510e-02  2.2000883214568176e-01  2.2460938264328627e+00 -5.9938970427837770e+00  1.7829895271836135e-02 -2.0392418293573338e-02 -1.6349790515687190e-01  1.7955018322923655e-01
2.002700000000000e+01 -2.0454402163973585e-02  2.1595764245896593e-01  1.3334961909767571e+00 -6.3154295096519171e+00  1.5644073175132049e-02 -2.3440362004986257e-02 -1.5484618286016555e-01  1.7768097342730524e-01
2.027677500000000e+01 -1.8539559336973371e-03  2.0615386853184284e-01  3.6010758994879138e-01 -6.5263677395980482e+00  1.2474058896849981e-02 -2.6512146312640449e-02 -1.5001676535496672e-01  1.7504884465417681e-01
2.052655000000000e+01  1.1650085616872788e-02  1.9421386933523593e-01 -6.5771488994833249e-01 -6.5895988872908680e+00  8.9740760647938796e-03 -2.9027940472719938e-02 -1.4579773064653004e-01  1.7153167162240543e-01
2.077632500000000e+01  1.5869145617493533e-02  1.7700956510579252e-01 -1.7080075130226908e+00 -6.4719234665074516e+00  4.6672802959360216e-03 -3.1272886004223899e-02 -1.4548495010305248e-01  1.6773985396773286e-01
2.102610000000000e+01  1.1398308931305707e-02  1.6299437714809117e-01 -2.7602535815031000e+00 -6.2165524493607363e+00  2.5749242933079678e-04 -3.2596588534711542e-02 -1.4918519218916240e-01  1.6558838499382750e-01
2.127587500000000e+01  4.1197861872920385e-04  1.5462494512209177e-01 -3.7929683781298702e+00 -5.7456051392743683e+00 -5.5084241195776746e-03 -3.3885955469916969e-02 -1.5630342430043787e-01  1.6662597421872832e-01
2.152565000000000e+01 -1.9706732922628381e-02  1.5410613481218707e-01 -4.7656250580179682e+00 -5.0732429016787535e+00 -1.1556626350823768e-02 -3.3208852519430940e-02 -1.6680144844147926e-01  1.7159271986345023e-01
2.177542500000000e+01 -4.0420524939154025e-02  1.6789246966671140e-01 -5.6311036960095437e+00 -4.2177732635404253e+00 -1.7118454341687701e-02 -3.2344815250568468e-02 -1.7875670564393889e-01  1.8389128190298620e-01
2.202520000000000e+01 -5.6488039496302642e-02  1.9301607687116434e-01 -6.3034670165789484e+00 -3.1652836009641843e+00 -2.3441315762533121e-02 -2.9769901397116216e-02 -1.8989563852062427e-01  2.0318604143528080e-01
2.227497500000000e+01 -6.3713076266763785e-02  2.2982024529221901e-01 -6.7656250730764036e+00 -1.9897470188738691e+00 -2.9141421051794913e-02 -2.5197979785192410e-02 -1.9561770159971567e-01  2.2810364242677506e-01
2.252475000000000e+01 -5.9875504482017540e-02  2.7792355677602248e-01 -7.0053716459488182e+00 -7.3681676469644564e-01 -3.4004208893968262e-02 -2.0431518601349952e-02 -1.9795227011123881e-01  2.5868221949049830e-01
2.277452500000000e+01 -3.5232540451650869e-02  3.2789611707757227e-01 -6.9497082547979181e+00  5.2050792894965059e-01 -3.7597654911140643e-02 -1.3326650027034042e-02 -1.8960574303397429e-01  2.9527283541415417e-01
2.302430000000000e+01  1.0299678161808620e-02  3.7350462932840744e-01 -6.6499019956590795e+00  1.7446292948969686e+00 -3.9249424978154770e-02 -6.5593762723617699e-03 -1.6998288192073360e-01  3.2704160764166418e-01
2.327407500000000e+01  6.9229115232610286e-02  4.0653991355609181e-01 -6.1560053252122353e+00  2.8496086990430007e+00 -4.0084840968715098e-02  9.0980418838724423e-04 -1.4160158387987296e-01  3.5742189246221279e-01
2.352385000000000e+01  1.3890075681528394e-01  4.2019651829340654e-01 -5.4855956978604086e+00  3.7800288563080779e+00 -3.8885116695881149e-02  6.6509199675420187e-03 -1.0655210981935639e-01  3.7678531514187996e-01
2.377362500000000e+01  2.1281431473684179e-01  4.1403198730099766e-01 -4.6872566655479471e+00  4.5900877120333998e+00 -3.6735531442072852e-02  1.3311385211249466e-02 -6.8603488164910006e-02  3.8800044419865037e-01
2.402340000000000e+01  2.8196714960514563e-01  3.8616943727587982e-01 -3.8195795791327711e+00  5.2053222144620204e+00 -3.4896851289950293e-02  1.8508911345858473e-02 -2.9876725125354067e-02  3.8851929574355298e-01
2.427317500000000e+01  3.4016418995558029e-01  3.4159850989237150e-01 -2.8869629747747023e+00  5.7124017179933766e+00 -3.2253260547386205e-02  2.3771287453935537e-02  5.1116994750566797e-03  3.8169859310845872e-01
2.452294900000000e+01  3.8703917384208297e-01  2.8082274742273117e-01 -1.8935549976826764e+00  6.0893552664087593e+00 -2.8273588115442765e-02  2.9099464408390615e-02  3.8101183817420045e-02  3.6842346522210323e-01
2.477272400000000e+01  4.0791322777173211e-01  2.1052552539743927e-01 -8.4326154119303787e-01  6.3293449974035090e+00 -2.4189001116739633e-02  3.4107211785816070e-02  6.4300515842269410e-02  3.4751892246425059e-01
2.502249900000000e+01  4.0267943794080202e-01  1.3417053168631013e-01  3.0712892658664970e-01  6.4531257835248557e+00 -1.8428806398392492e-02  3.9625169748876476e-02  8.4457376431639530e-02  3.2179260584605718e-01
2.527227400000000e+01  3.6413575550599570e-01  7.0510864895123329e-02  1.5825193656532599e+00  6.3791511023155438e+00 -1.1837007837798163e-02  4.3378831133887796e-02  9.1659548755316442e-02  2.8884890492280119e-01
2.552204900000000e+01  2.9338072996474313e-01  3.8436888748785536e-02  2.9455566105739797e+00  5.9807132145438011e+00 -2.5920886090905213e-03  4.7212602598092415e-02  7.9467786120320960e-02  2.5700378008604557e-01
2.577182400000000e+01  2.1060942887913423e-01  6.6139220799168466e-02  4.2878416048092971e+00  5.1032714762765909e+00  9.0675349928116111e-03  4.8601151076387565e-02  4.4860828426360494e-02  2.4195100319640367e-01
2.602159900000000e+01  1.6786194481237177e-01  1.5730286386335190e-01  5.2810055763208057e+00  3.7021481250371031e+00  2.0441052468121706e-02  4.4147487440843888e-02  2.2582917669600596e-03  2.5787354900828008e-01
2.627137400000000e+01  2.0477294947398608e-01  2.6577760799494687e-01  5.5844724518593427e+00  2.0849609430597971e+00  2.9769897851283669e-02  3.5039900690094397e-02 -2.3864738666830379e-02  3.0668639276810200e-01
2.652114900000000e+01  3.0781555824280954e-01  3.3503722441798639e-01  5.3066403421078281e+00  6.7749023343318715e-01  3.3750531011390451e-02  2.5192260481958075e-02 -1.6799914714562662e-02  3.6709594502385090e-01
2.677092400000000e+01  4.2987056569449295e-01  3.4309386614741127e-01  4.7265627017837542e+00 -2.9052735123083229e-01  3.3300398779027837e-02  1.6891478153247531e-02  1.9348143918466353e-02  4.1802977875834563e-01
2.702069900000000e+01  5.4016110516062932e-01  3.0172728212889649e-01  4.1213378503635241e+00 -9.0624996766771604e-01  3.2169345435083020e-02  1.0854722680657375e-02  6.9656365407673990e-02  4.4799805737007642e-01
2.727047400000000e+01  6.2326052517017982e-01  2.3046876152892351e-01  3.5692137774539936e+00 -1.3411864704843641e+00  3.0865670961875324e-02  6.4468387962046134e-03  1.2265016231301631e-01  4.6165465885781809e-01
2.752024900000000e+01  6.8057251041602473e-01  1.4807129217953327e-01  3.1138917543571174e+00 -1.6276856372940924e+00  2.9670716030486540e-02  2.6273729078013400e-03  1.7210387779015845e-01  4.6272280504984431e-01
2.777002400000000e+01  7.1890260668078454e-01  6.1798095734458131e-02  2.7027588489759271e+00 -1.8664552153378473e+00  2.8283122372028905e-02 -8.8310264187633786e-04  2.1734615307251551e-01  4.5578000684118214e-01
2.801979900000000e+01  7.3968505511408666e-01 -2.3345949057252225e-02  2.3127441506842179e+00 -2.0856934429610723e+00  2.6837351085235824e-02 -3.8795473774689512e-03  2.5820923165551918e-01  4.4302365080845002e-01
2.826957400000000e+01  7.4670408816179357e-01 -1.0519408427874796e-01  1.9576415933511302e+00 -2.2453612330914821e+00  2.5111201195783257e-02 -6.8683631520975582e-03  2.9611206046767685e-01  4.2788695414983779e-01
2.851934900000000e+01  7.4179076769488439e-01 -1.8371582275018297e-01  1.5836181061956132e+00 -2.4028320977182704e+00  2.3284913705399323e-02 -1.0038376894131116e-02  3.3145139667228096e-01  4.1015622946861507e-01
2.876912400000000e+01  7.3162843180138459e-01 -2.6144409086297793e-01  1.1986083037055471e+00 -2.4980469223443977e+00  2.0951272023783177e-02 -1.1705399231725352e-02  3.6344912792913109e-01  3.8748172944970122e-01
2.901889900000000e+01  7.0602422558987277e-01 -3.3267213302296489e-01  8.2861314871997960e-01 -2.5624998802670698e+00  1.9670482956817663e-02 -1.3234135844739928e-02  3.9147946823510893e-01  3.6474608578572237e-01
2.926867400000000e+01  6.8118289682763700e-01 -4.0222168438822936e-01  4.4677754255019958e-01 -2.5802002355094231e+00  1.7697335819671006e-02 -1.4843941661895522e-02  4.1500857066666785e-01  3.4141543937620916e-01
2.951844900000000e+01  6.4581294683363333e-01 -4.6151733081263585e-01  5.4565250768576726e-02 -2.5465087490571365e+00  1.6052242359042908e-02 -1.7068858724809122e-02  4.3569943787006704e-01  3.1790160561755137e-01
2.976822400000000e+01  6.0617064191456294e-01 -5.1638792704410130e-01 -3.0700694212744245e-01 -2.4544677784687843e+00  1.3293266270127795e-02 -1.8424987306460295e-02  4.5484924592088516e-01  2.9515075926547935e-01
3.001799900000000e+01  5.6027227192921569e-01 -5.7147220239718499e-01 -6.5991226040178874e-01 -2.3177490665597169e+00  1.1125565547060968e-02 -1.9084930611435756e-02  4.7184753833232851e-01  2.7333068953103551e-01
3.026777400000000e+01  5.1565553541046216e-01 -6.1877445701345302e-01 -9.9145504681297791e-01 -2.1243894431818613e+00  9.0827929746057374e-03 -2.0530700828229997e-02  4.8727422058566677e-01  2.5270082483981249e-01
3.051754900000000e+01  4.6255492173904061e-01 -6.5753168814799967e-01 -1.2626342930241032e+00 -1.8900754222743241e+00  6.8368904295521482e-03 -2.0794868992085609e-02  5.0225829954889689e-01  2.3538207684509563e-01
3.076732400000000e+01  4.1238402375315747e-01 -6.9015497888197141e-01 -1.5208128289292102e+00 -1.6101687019282931e+00  3.2081613749667744e-03 -2.1296503961241463e-02  5.1803591584498343e-01  2.1432495221152445e-01
3.101709900000000e+01  3.5589598267229350e-01 -7.2103880485812921e-01 -1.7103882380567439e+00 -1.3001709620339172e+00  7.2860860738101696e-04 -2.1002772438610998e-02  5.3366090045862891e-01  1.9741821593310138e-01
3.126687400000000e+01  2.9110714508530422e-01 -7.4581908483434056e-01 -1.8358155237818834e+00 -9.8516831595769172e-01 -2.1982194428299649e-03 -2.1141047210995995e-02  5.5133060177022886e-01  1.8099976632799702e-01
3.151664900000000e+01  2.3428346084507765e-01 -7.5662229088374122e-01 -1.9074096697739857e+00 -6.1553950221575238e-01 -5.3262714313654855e-03 -2.0294186505144241e-02  5.6784054800474904e-01  1.6427610529636635e-01
3.176642400000000e+01  1.7825316444232209e-01 -7.6358030929277732e-01 -1.9028320779003223e+00 -2.7746595616444181e-01 -6.3772212900691733e-03 -1.9078254523949695e-02  5.9078979438553669e-01  1.4602661691460944e-01
3.201619900000000e+01  1.2051393963381324e-01 -7.6391594640360205e-01 -1.8540649924194648e+00  4.1381613777553297e-02 -9.5520020204650970e-03 -1.7614362760257407e-02  6.1499020140541893e-01  1.2554930885271134e-01
3.226597400000000e+01  6.7291271508956502e-02 -7.6275636561419746e-01 -1.7271728646781068e+00  3.5235590614699314e-01 -1.2125969043880289e-02 -1.5070917118287331e-02  6.4205930768246477e-01  1.0275268299005266e-01
3.251574900000000e+01  2.4383493876955209e-02 -7.5039674571410997e-01 -1.5503539627412370e+00  5.9905991255258761e-01 -1.3188841166443931e-02 -1.3076781162612868e-02  6.7013550807668754e-01  7.5408937900571321e-02
3.276552400000000e+01 -2.1667503970427934e-02 -7.3919684704346200e-01 -1.3507080240963947e+00  8.1109627100548476e-01 -1.3626578259021164e-02 -1.0089400875425808e-02  7.0001219435613671e-01  4.0832517877615979e-02
3.301529900000000e+01 -6.3690241376256840e-02 -7.1817022958157828e-01 -1.1239012921986036e+00  9.7149656251557126e-01 -1.4645576932109753e-02 -7.9612750184779504e-03  7.2503662370523159e-01  3.6621478672134059e-04
3.326507400000001e+01 -9.8815926408503701e-02 -7.0126340242810670e-01 -8.7841790031138656e-01  1.0668946880348400e+00 -1.5169142199506137e-02 -6.0358040375888466e-03  7.5076296343718152e-01 -4.1931158307642415e-02
3.351484900000001e+01 -1.3473511893508489e-01 -6.9427492338792141e-01 -6.6351321360635140e-01  1.1181029334406629e+00 -1.5302179894046119e-02 -2.5162704291724946e-03  7.7294916623191112e-01 -9.0911851710700653e-02
3.376462400000000e+01 -1.6098024061959040e-01 -6.7449945285829371e-01 -4.4268797780129887e-01  1.1276855299618731e+00 -1.4220711755946563e-02 -1.3055807889696559e-03  7.8744509448334443e-01 -1.4651491086518384e-01
3.401439900000000e+01 -1.9186398197516480e-01 -6.5380859020483439e-01 -2.4664308405897076e-01  1.0953368555097944e+00 -1.4466759161537952e-02  5.3357905474755822e-04  7.9858395837856799e-01 -2.0480346295945445e-01
3.426417400000000e+01 -2.1142575643177960e-01 -6.3638307919289672e-01 -7.8979534139120691e-02  1.0447387259981300e+00 -1.3113018718380363e-02  1.7089846484638301e-03  8.0020137356349152e-01 -2.6419066614880238e-01
3.451394900000000e+01 -2.3620602957350917e-01 -6.2573238049699986e-01  7.1868959959054152e-02  9.6990967533538985e-01 -1.2003897113368689e-02  3.1971929564755760e-03  7.9934688073150117e-01 -3.2446286949109293e-01
3.476372400000000e+01 -2.6074219755009254e-01 -6.1032105341618359e-01  1.8502810603376146e-01  8.7002563144899792e-01 -1.0611533707712468e-02  5.4483400215843778e-03  7.8997804262505011e-01 -3.8208006938950229e-01
3.501349900000000e+01 -2.7795406910264736e-01 -6.0037232686723463e-01  2.7365113179844019e-01  7.8997807887542237e-01 -9.9821087822311427e-03  5.5823319881123179e-03  7.7670291786634349e-01 -4.4171143795872142e-01
3.526327400000000e+01 -3.0410767274181116e-01 -5.8807368912488467e-01  3.5482790035863809e-01  6.9192507403071657e-01 -8.1849101889228757e-03  6.8860049800448051e-03  7.5714108970839500e-01 -5.0024413030001214e-01
3.551304900000000e+01 -3.2736210948464572e-01 -5.7781986512189687e-01  3.9663695359338758e-01  6.0534671141253316e-01 -7.3075299499263287e-03  7.0979587006682930e-03  7.3391723068764403e-01 -5.5975344533829186e-01
3.576282400000000e+01 -3.5073853380560355e-01 -5.6188969123500343e-01  4.3789671604432384e-01  5.1754762688130285e-01 -6.2277309683363867e-03  6.9439413378807992e-03  7.0584105447172252e-01 -6.1187745040888486e-01
3.601259900000000e+01 -3.7075807374395592e-01 -5.5139164831742815e-01  4.7085568112714199e-01  4.2944334670305484e-01 -4.0395257604628389e-03  7.7869884203048976e-03  6.7507937156644326e-01 -6.6415410589460999e-01
3.626237400000000e+01 -3.9398196092643056e-01 -5.3515622112924222e-01  4.8338316210004956e-01  3.5516357751446287e-01 -3.8332936756623232e-03  7.8878410129403220e-03  6.3616942524450348e-01 -7.1566772049455529e-01
3.651214900000000e+01 -4.2434691407775899e-01 -5.1535031280691623e-01  4.9034121752905824e-01  2.7752687966626943e-01 -2.4688250541563686e-03  7.5373654275296019e-03  5.9680178913516779e-01 -7.6223755367121926e-01
3.676192400000000e+01 -4.3733209919914723e-01 -4.9313358232672222e-01  4.9130251336031977e-01  2.2325136385040761e-01 -1.8138888521900681e-03  8.1920619318873577e-03  5.5139161718534591e-01 -8.0612187309795813e-01
3.701169900000000e+01 -4.6669003876859111e-01 -4.7908017703475880e-01  4.9266054003649146e-01  1.7053222926970946e-01 -1.1403560497494118e-03  7.7126032716925983e-03  5.0350949508672171e-01 -8.4854123235711365e-01
3.726147400000000e+01 -4.8385618268944719e-01 -4.5266724742981651e-01  5.0076288780320499e-01  9.6191402267181106e-02  5.3930279337727639e-04  8.0690378053341807e-03  4.5004268909440287e-01 -8.8662719039242222e-01
3.751124900000000e+01 -5.0442500869498752e-01 -4.3304440275809086e-01  4.7343446574565384e-01  4.6615600610050531e-02  5.3024315111032977e-04  7.5898166426720788e-03  3.9321905226339049e-01 -9.2037963554201485e-01
3.776102400000000e+01 -5.2444454282795816e-01 -4.1229244997795289e-01  4.7076414936791283e-01 -3.5095210684287234e-03  1.4843944205386232e-03  7.2302826577667128e-03  3.4448247016855421e-01 -9.4778447321522963e-01
3.801079900000001e+01 -5.4693600649047269e-01 -3.8504022882998079e-01  4.5808411761376711e-01 -5.9265140074500164e-02  2.1486284582711988e-03  5.9974198790452866e-03  2.8500371641558986e-01 -9.7009279748875921e-01
3.826057400000001e+01 -5.6488032357472373e-01 -3.6782841862590016e-01  4.3562316338472573e-01 -9.8251343482439316e-02  2.6376244561901151e-03  6.1411852145759937e-03  2.2378546672240063e-01 -9.9255368634319863e-01
3.851034900000001e+01 -5.7571414598092974e-01 -3.3581540574774166e-01  4.1491695796743544e-01 -1.3853453669624177e-01  4.4746398441761932e-03  6.0842033482591418e-03  1.6412357820180470e-01 -1.0063476416275394e+00
3.876012400000000e+01 -5.9744263881673398e-01 -3.1567385867663889e-01  3.9022828739589355e-01 -1.8823242894631007e-01  5.2914629896295409e-03  5.6855688360190381e-03  9.8999018059776109e-02 -1.0195922532082740e+00
3.900989900000000e+01 -6.0760501849883908e-01 -2.8527825118021011e-01  3.5411073397602083e-01 -2.2047424829977094e-01  5.7768811987647583e-03  3.9587015496658270e-03  3.3508298774405788e-02 -1.0298462327623343e+00
3.925967400000000e+01 -6.2283331592617530e-01 -2.4844357686958185e-01  3.3424378245495850e-01 -2.5434875150511910e-01  5.6905739848838507e-03  5.3246017492469431e-03 -3.5705498474663644e-02 -1.0328978451625435e+00
3.950944900000000e+01 -6.3079829344424299e-01 -2.1557620223198223e-01  2.8224183027251909e-01 -2.8720093507797867e-01  5.6543352386814842e-03  4.2014126436100072e-03 -1.0589602575440764e-01 -1.0244141340757527e+00
3.975922400000000e+01 -6.3934329404128598e-01 -1.9107057023059326e-01  2.5575256025357090e-01 -3.1382750325812819e-01  7.0304864117962584e-03  3.7567611274795638e-03 -1.7553706879729236e-01 -1.0224000070631585e+00
4.000899900000000e+01 -6.4920045440453111e-01 -1.5768440819350221e-01  2.1006776113770256e-01 -3.4518432117997955e-01  6.2394129395312069e-03  1.4319417175470103e-03 -2.4444586638953855e-01 -1.0049438983548384e+00
4.025877400000000e+01 -6.5698238017351662e-01 -1.2933357163096565e-01  1.6262817729023191e-01 -3.6505128425623973e-01  6.8078032634740666e-03  2.6590820068590464e-03 -3.1182860360913311e-01 -9.8202515698654180e-01
4.050854900000000e+01 -6.5847775730228919e-01 -9.8815911839972154e-02  1.3694761976269318e-01 -3.8267515469486885e-01  8.2225807621709168e-03  5.4883963201250859e-04 -3.8244622001050854e-01 -9.5919791836351453e-01
4.075832400000000e+01 -6.6763308646094988e-01 -7.0831229118413913e-02  7.9086285907551998e-02 -3.9517213831655762e-01  8.3875640542186453e-03  1.6136167003850807e-03 -4.4656378562111859e-01 -9.2828366257787320e-01
4.100809900000000e+01 -6.6571044893291997e-01 -4.1717488348878277e-02  4.9362175566129943e-02 -4.0681457415974182e-01  8.1286410668932156e-03  9.5366056569447391e-07 -5.1049804358111694e-01 -8.8781744339231283e-01
4.125787400000000e+01 -6.6900633013164701e-01 -6.1034627414058859e-03 -6.7138936164127441e-03 -4.1146850067769869e-01  8.9383125208655281e-03 -1.8830299127488529e-03 -5.7101440950506066e-01 -8.4265130129167543e-01
4.150764900000000e+01 -6.6867064232297957e-01  2.2399869742759333e-02 -5.2185043034360348e-02 -4.1554257935751715e-01  1.0817050808734222e-02 -1.7271042313656735e-03 -6.2564097755771220e-01 -7.9321284154939753e-01
4.175742400000000e+01 -6.6094974547168373e-01  6.7138645011378437e-02 -9.1201801268904051e-02 -4.2691038851270580e-01  1.0540009283415580e-02 -4.3168070925350540e-03 -6.8872069367539257e-01 -7.2506725463709276e-01
4.200719900000000e+01 -6.5002436020240928e-01  9.9060044049522802e-02 -1.5435790962691720e-01 -4.1914364978724283e-01  1.0602950720918613e-02 -5.2475929483728600e-03 -7.3501590215349921e-01 -6.5673821069637706e-01
4.225697400000000e+01 -6.5213011071761229e-01  1.2432869461324578e-01 -2.1983338881079587e-01 -4.0921020104222344e-01  1.0443688852845752e-02 -6.0768135987746335e-03 -7.8048712984698221e-01 -5.8059683855360633e-01
4.250674900000000e+01 -6.3732911996956787e-01  1.5960692186205194e-01 -2.8237919528127881e-01 -4.0391541712042439e-01  7.3845377035419036e-03 -7.2665210021073548e-03 -8.1930536916071517e-01 -4.9591069924760983e-01
4.275652400000001e+01 -6.1923214489476930e-01  1.9259641876086533e-01 -3.5575868528082977e-01 -3.6434933228167615e-01  1.0904313271234209e-02 -8.2864770722569127e-03 -8.4564202958496471e-01 -3.9373784521031213e-01
4.300629900000001e+01 -6.0064701390776054e-01  2.2140503273543929e-01 -4.3322750990322356e-01 -3.2429504639493179e-01  7.5316433740307172e-03 -1.2258530171074486e-02 -8.6370845646426064e-01 -2.8308101576990619e-01
4.325607400000001e+01 -5.8483889456660754e-01  2.5930777944557820e-01 -5.0582891796491092e-01 -2.7410885137423152e-01  9.9201217341984525e-03 -1.2727738764551260e-02 -8.5977168836779128e-01 -1.6177357148343480e-01
4.350584900000000e+01 -5.7141107227804455e-01  2.7310184743260074e-01 -5.7742308177830715e-01 -1.8695076328488613e-01  5.7640076829798530e-03 -1.6550062259066925e-02 -8.2724002505103800e-01 -3.6956874874487948e-02
4.375562400000000e+01 -5.3796391104095964e-01  3.1848142265115370e-01 -6.5194705781071427e-01 -9.7503717306050897e-02  4.0245049270048192e-03 -1.7134664178746754e-02 -7.7484132323357002e-01  8.9172395421715858e-02
4.400539900000000e+01 -5.2334590355224442e-01  3.3840942796362355e-01 -6.9885253301349715e-01  3.2775897609569934e-02  3.1967158052575427e-03 -2.0557404200025445e-02 -6.6979981503676489e-01  2.1215822742770540e-01
4.425517400000000e+01 -4.9192807013121376e-01  3.5667418150011210e-01 -7.1896357106771069e-01  1.8395991215078392e-01 -9.0694371018128575e-04 -2.2032735478351075e-02 -5.2359014008063920e-01  3.0905145871950407e-01
4.450494900000000e+01 -4.6911617592690263e-01  3.7910460421468417e-01 -7.0947262207562078e-01  3.6666869675329139e-01 -4.3592435385226272e-03 -2.3197170568641918e-02 -3.4944155463214571e-01  3.5577393091850418e-01
4.475472400000000e+01 -4.3963623207582875e-01  3.9219665248964442e-01 -6.2948617717761590e-01  5.5142206998990539e-01 -9.8886487114544838e-03 -2.3750302300212321e-02 -1.5802003637643799e-01  3.3955381687023867e-01
4.500449900000000e+01 -4.2019649513724200e-01  4.1146852108471693e-01 -4.8501587324490558e-01  7.2198487463142447e-01 -1.6233440955977372e-02 -2.0584105017138810e-02  1.1398326844792715e-02  2.5201416124923454e-01
4.525427400000000e+01 -3.9674382951883225e-01  4.2288206597869293e-01 -2.7316280342055071e-01  8.4454342660759862e-01 -2.2856712500583128e-02 -1.9014361212203391e-02  1.3359069340622437e-01  1.0633087319715695e-01
4.550404900000000e+01 -3.7622070892660603e-01  4.2219548140070812e-01 -4.5562715306399805e-02  8.7197881738423810e-01 -2.4120335015746407e-02 -1.3475416192088998e-02  1.7906951118308273e-01 -5.6114192773227087e-02
4.575382400000000e+01 -3.4992981761945074e-01  4.5045471784351793e-01  1.8417354339693559e-01  8.2769777003205347e-01 -2.7209283646620726e-02 -8.0375658748087723e-03  1.6822052637347720e-01 -2.1113586469064666e-01
4.600359900000000e+01 -3.3712767315565273e-01  4.4929503297711182e-01  3.5180664475885515e-01  7.1520995152834854e-01 -2.8426172158181821e-02 -2.2287334573566943e-03  1.0708619309252573e-01 -3.2749936022429899e-01
4.625337400000000e+01 -3.0003357814789255e-01  4.6229550327869484e-01  4.8120118096029596e-01  5.8749389214501468e-01 -2.6438714746491922e-02  4.7588334913390359e-03  2.3849479540082003e-02 -4.1651915296135655e-01
4.650314900000000e+01 -2.9283143670091905e-01  4.8719786429816325e-01  5.6533811352361596e-01  4.5822142301338903e-01 -2.5264741548329774e-02  6.3905701060354529e-03 -6.8222038788819300e-02 -4.5672604484409957e-01
4.675292400000000e+01 -2.6060487281982542e-01  4.9642947063670079e-01  6.2832639991383765e-01  3.3056638525388632e-01 -2.4441718550881588e-02  1.6614912343918306e-02 -1.4982608559708144e-01 -4.7096252800890909e-01
4.700269900000000e+01 -2.2225952328942955e-01  5.0289922674641629e-01  6.6827388559041390e-01  1.7007445164201085e-01 -1.7397883035966791e-02  1.6421323361473953e-02 -2.3475646917387719e-01 -4.5509332636895505e-01
4.725247400000000e+01 -2.0046993782066380e-01  5.2163696939197490e-01  6.4205931834783281e-01  4.6264646315126154e-02 -1.6617774144784984e-02  2.1072388907331662e-02 -2.9351805203720849e-01 -4.2257686173258086e-01
4.750224900000001e+01 -1.8502806407972780e-01  5.1495362357335772e-01  6.4337153489867227e-01 -8.1756586319645719e-02 -6.2217731597077157e-03  2.0502093746780883e-02 -3.3245851212339850e-01 -3.8328556520386448e-01
4.775202400000001e+01 -1.5206910767702536e-01  5.1766966961230998e-01  5.8599851559446514e-01 -2.2204590119373191e-01 -7.5988771834566426e-03  2.2473339525755993e-02 -3.5592653538257774e-01 -3.3560175041029516e-01
4.800179900000001e+01 -1.2838745787457434e-01  5.1742552812572395e-01  5.2536009843857334e-01 -3.3950807146181328e-01  5.4740859787292010e-04  2.7133944881038846e-02 -3.6016844670274833e-01 -2.9280089120964009e-01
4.825157400000001e+01 -1.0040283000161251e-01  5.1843262490485176e-01  4.3446346186239870e-01 -4.2552183084647138e-01  2.6884077245378376e-03  2.0143505482963165e-02 -3.5391233951474643e-01 -2.5617983939291250e-01
4.850134900000000e+01 -7.4737536710292415e-02  5.2853393481143285e-01  3.3016967082162579e-01 -4.9409481453183240e-01  6.6776276577218633e-03  2.8920169546680981e-02 -3.3340458249015520e-01 -2.3103330077030018e-01
4.875112400000000e+01 -4.5257593175440924e-02  5.2627560296188647e-01  2.0309450677166643e-01 -5.5520634534184277e-01  1.4566899627455086e-02  1.4821531141512280e-02 -3.0157466229893237e-01 -2.1629332662023429e-01
4.900089900000000e+01 -2.8625461350384945e-02  5.4107662879992080e-01  7.3242217251075381e-02 -5.7745360098068310e-01  1.4288898502993079e-02  1.9876475669488084e-02 -2.7537536633529736e-01 -2.1913147679835804e-01
4.925067400000000e+01 -1.1444061786329601e-02  5.2828979906694162e-01 -7.0526103537069382e-02 -5.6445314880319264e-01  1.8342021277329899e-02  6.1397563533862696e-03 -2.4919891654105664e-01 -2.4375912681422296e-01
4.950044900000000e+01  2.2460931212425355e-02  5.2764895063943140e-01 -1.8081665711436712e-01 -4.9848938231743006e-01  1.7196655405448902e-02  7.4291234257499008e-03 -2.3709102997592912e-01 -2.5942994243663714e-01
4.975022400000000e+01  6.7657499153607734e-02  5.3005981997199869e-01 -2.7998349525254274e-01 -4.2800905452415106e-01  2.1316532448735014e-02  3.9157874790436984e-03 -2.3005673427769241e-01 -3.0114745727198428e-01
4.999999900000000e+01  6.8420397623103799e-02  5.2987672252427320e-01 -3.6442565244405783e-01 -3.3378607136833527e-01  1.8138882124387981e-02 -6.7319856887163272e-03 -2.5068665600135970e-01 -3.4429929835873763e-01

! Noise Data
2.000000000000000e+00 4.00000000e+00 0.00000000e+00 0.00000000e+00 3.75000000e+01
4.000000000000000e+00 2.90000000e+00 0.00000000e+00 0.00000000e+00 2.37500000e+01
6.000000000000000e+00 2.20000000e+00 0.00000000e+00 0.00000000e+00 1.50000000e+01
8.000000000000000e+00 1.80000000e+00 0.00000000e+00 0.00000000e+00 1.00000000e+01
1.000000000000000e+01 2.20000000e+00 0.00000000e+00 0.00000000e+00 1.50000000e+01
1.200000000000000e+01 2.00000000e+00 0.00000000e+00 0.00000000e+00 1.25000000e+01
1.400000000000000e+01 2.10000000e+00 0.00000000e+00 0.00000000e+00 1.37500000e+01
1.600000000000000e+01 2.30000000e+00 0.00000000e+00 0.00000000e+00 1.62500000e+01
1.800000000000000e+01 2.40000000e+00 0.00000000e+00 0.00000000e+00 1.75000000e+01
2.000000000000000e+01 3.10000000e+00 0.00000000e+00 0.00000000e+00 2.62500000e+01
2.200000000000000e+01 3.70000000e+00 0.00000000e+00 0.00000000e+00 3.37500000e+01
