# GHz S RI R 50

1.180000000000000e+01 -1.2603659815726151e-01 -1.5526170067192030e-01 -3.6459281054096121e-01  2.7244816550373607e-01 -3.4090264687917676e-01  2.6710273770999166e-01 -3.3041340164312089e-01  2.7201967390256104e-01
                        -3.4230809056387124e-01  2.7628238015186635e-01
                        -3.6459281054099446e-01  2.7244816550373141e-01 -3.8334934096595830e-02 -3.8075012234455041e-01 -1.4618227311671300e-01  4.7249235646429272e-02 -5.5441306126569820e-03  6.6716311545238813e-02
                        -1.1609574282888457e-02  7.1066710890958812e-02
                        -3.4090264687919403e-01  2.6710273771012549e-01 -1.4618227311671064e-01  4.7249235646595375e-02 -5.6146827242162287e-02 -3.6658120484798246e-01 -1.1881123249351288e-02  6.3516738222304525e-02
                        -4.5791609026772633e-03  6.5373792091210498e-02
                        -3.3041340164308447e-01  2.7201967390277704e-01 -5.5441306125929776e-03  6.6716311545654591e-02 -1.1881123249384288e-02  6.3516738222288774e-02 -5.2319159693042447e-02 -3.6515809613243699e-01
                        -1.4485910649799461e-01  6.4113608866512545e-02
                        -3.4230809056392963e-01  2.7628238015184164e-01 -1.1609574282931190e-02  7.1066710890751963e-02 -4.5791609026942922e-03  6.5373792091226235e-02 -1.4485910649788422e-01  6.4113608866962046e-02
                        -3.7830551046784719e-02 -3.4923836717186313e-01
1.180404040404040e+01 -1.3030059643346828e-01 -1.5256982967398991e-01 -3.6160359244166690e-01  2.7623021678849513e-01 -3.3798861559727089e-01  2.7065382215558081e-01 -3.2745113371756462e-01  2.7551137822134741e-01
                        -3.3926741474949040e-01  2.7985537147725764e-01
                        -3.6160359244172285e-01  2.7623021678850179e-01 -4.1158757110459521e-02 -3.8115841063764433e-01 -1.4648194110778401e-01  4.7681701844996427e-02 -4.2940679410593992e-03  6.6487341700781605e-02
                        -1.0324434612114713e-02  7.0880788101547604e-02
                        -3.3798861559729465e-01  2.7065382215574751e-01 -1.4648194110778029e-01  4.7681701845171974e-02 -5.8820059162915300e-02 -3.6678620134993056e-01 -1.0731137586925409e-02  6.3324034781309935e-02
                        -3.3603367972865187e-03  6.5130456480048796e-02
                        -3.2745113371753543e-01  2.7551137822153587e-01 -4.2940679409947417e-03  6.6487341701212149e-02 -1.0731137586899284e-02  6.3324034781356564e-02 -5.4857351864231227e-02 -3.6540699138826138e-01
                        -1.4492067408428788e-01  6.4514115682980711e-02
                        -3.3926741474953448e-01  2.7985537147728901e-01 -1.0324434612183115e-02  7.0880788101331735e-02 -3.3603367973486951e-03  6.5130456480059301e-02 -1.4492067408418802e-01  6.4514115683404163e-02
                        -4.0307558832910595e-02 -3.4967091521529103e-01
1.180808080808081e+01 -1.3450526165654472e-01 -1.4980704061756361e-01 -3.5857511482956134e-01  2.7997606161990735e-01 -3.3503779754761581e-01  2.7417018871371213e-01 -3.2445127751398845e-01  2.7896792123129177e-01
                        -3.3618857804262503e-01  2.8339155778749603e-01
                        -3.5857511482963705e-01  2.7997606161992478e-01 -4.3987863107537939e-02 -3.8153591784816243e-01 -1.4678234542162055e-01  4.8130511685316082e-02 -3.0545426064865571e-03  6.6237660864820261e-02
                        -9.0496819967197904e-03  7.0673888773937182e-02
                        -3.3503779754763807e-01  2.7417018871390980e-01 -1.4678234542160729e-01  4.8130511685504002e-02 -6.1495945122703580e-02 -3.6696215787618636e-01 -9.5911438805313821e-03  6.3112236440770117e-02
                        -2.1522115356438273e-03  6.4867095013295933e-02
                        -3.2445127751395519e-01  2.7896792123146269e-01 -3.0545426064007520e-03  6.6237660865272871e-02 -9.5911438804580848e-03  6.3112236440865777e-02 -5.7399314549115885e-02 -3.6562884507505411e-01
                        -1.4498371553805134e-01  6.4928035248319069e-02
                        -3.3618857804265856e-01  2.8339155778757397e-01 -9.0496819968190981e-03  7.0673888773710405e-02 -2.1522115357420265e-03  6.4867095013304718e-02 -1.4498371553793782e-01  6.4928035248730628e-02
                        -4.2790126710354426e-02 -3.5007658079509985e-01
1.181212121212121e+01 -1.3864928443253297e-01 -1.4697471309812665e-01 -3.5550792791159236e-01  2.8368530451968144e-01 -3.3205070679074528e-01  2.7765147368526444e-01 -3.2141435281020186e-01  2.8238889552079077e-01
                        -3.3307213666601532e-01  2.8689052490082145e-01
                        -3.5550792791168478e-01  2.8368530451970941e-01 -4.6821927242918795e-02 -3.8188255744053795e-01 -1.4708322208186694e-01  4.8595721728369713e-02 -1.8258244791206656e-03  6.5967582193845728e-02
                        -7.7855845044085869e-03  7.0446332179389046e-02
                        -3.3205070679075943e-01  2.7765147368549103e-01 -1.4708322208183733e-01  4.8595721728571739e-02 -6.4174177709648492e-02 -3.6710902339546075e-01 -8.4613884553793005e-03  6.2881641631139101e-02
                        -9.5504113682037600e-04  6.4584020399258868e-02
                        -3.2141435281015479e-01  2.8238889552095220e-01 -1.8258244789967769e-03  6.5967582194324803e-02 -8.4613884552696868e-03  6.2881641631272356e-02 -5.9944754677334525e-02 -3.6582357923390207e-01
                        -1.4504799001885918e-01  6.5355443040529898e-02
                        -3.3307213666604157e-01  2.8689052490093714e-01 -7.7855845045427842e-03  7.0446332179150542e-02 -9.5504113694637027e-04  6.4584020399268624e-02 -1.4504799001871174e-01  6.5355443040939945e-02
                        -4.5277961421768667e-02 -3.5045526805853211e-01
1.181616161616162e+01 -1.4273139025638201e-01 -1.4407425088749753e-01 -3.5240258560719157e-01  2.8735756135795676e-01 -3.2902786057062683e-01  2.8109732376816920e-01 -3.1834088377342568e-01  2.8577390433105193e-01
                        -3.2991865137241538e-01  2.9035187013128327e-01
                        -3.5240258560729759e-01  2.8735756135799451e-01 -4.9660622368311549e-02 -3.8219824404598801e-01 -1.4738430556705170e-01  4.9077387328863006e-02 -6.0817554619620271e-04  6.5677419860728531e-02
                        -6.5324020478506450e-03  7.0198438410465025e-02
                        -3.2902786057062761e-01  2.8109732376842184e-01 -1.4738430556700036e-01  4.9077387329079833e-02 -6.6854447735519906e-02 -3.6722674805890076e-01 -7.3421102272156480e-03  6.2632549528803511e-02
                         2.3092614152272453e-04  6.4281546117043120e-02
                        -3.1834088377335679e-01  2.8577390433121019e-01 -6.0817554602064327e-04  6.5677419861236139e-02 -7.3421102270795121e-03  6.2632549528964548e-02 -6.2493376791273689e-02 -3.6599111730205863e-01
                        -1.4511325464737232e-01  6.5796413122039113e-02
                        -3.2991865137243737e-01  2.9035187013142916e-01 -6.5324020480224823e-03  7.0198438410214739e-02  2.3092614137634792e-04  6.4281546117055832e-02 -1.4511325464717451e-01  6.5796413122454961e-02
                        -4.7770767042024737e-02 -3.5080688252948511e-01
1.182020202020202e+01 -1.4675033987286565e-01 -1.4110708098300820e-01 -3.4925964523558345e-01  2.9099245941139501e-01 -3.2596977902859015e-01  2.8450739610267178e-01 -3.1523139865858690e-01  2.8912256162433003e-01
                        -3.2672868712174741e-01  2.9377520236057186e-01
                        -3.4925964523570080e-01  2.9099245941144203e-01 -5.2503618984274469e-02 -3.8248289356843496e-01 -1.4768532873457907e-01  4.9575562580568756e-02  5.9814999286045062e-04  6.5367488884709932e-02
                        -5.2903864874607352e-03  6.9930528203514128e-02
                        -3.2596977902857321e-01  2.8450739610294745e-01 -1.4768532873450191e-01  4.9575562580800293e-02 -6.9536444195900521e-02 -3.6731528329170837e-01 -6.2335407975601716e-03  6.2365259900905794e-02
                         1.4054497046127482e-03  6.3959986252221462e-02
                        -3.1523139865849009e-01  2.8912256162448974e-01  5.9814999309809732e-04  6.5367488885246086e-02 -6.2335407974062592e-03  6.2365259901086170e-02 -6.5044883017117000e-02 -3.6613138421759051e-01
                        -1.4517926444314661e-01  6.6251018073938309e-02
                        -3.2672868712176789e-01  2.9377520236074073e-01 -5.2903864876718042e-03  6.9930528203252684e-02  1.4054497044524920e-03  6.3959986252238532e-02 -1.4517926444288559e-01  6.6251018074364676e-02
                        -5.0268244947181906e-02 -3.5113133122411411e-01
1.182424242424242e+01 -1.5070492960972773e-01 -1.3807465265456365e-01 -3.4607966719999111e-01  2.9458963740892086e-01 -3.2287698491463657e-01  2.8788135830514666e-01 -3.1208642950388416e-01  2.9243449213993827e-01
                        -3.2350281275540549e-01  2.9716014209695529e-01
                        -3.4607966720011690e-01  2.9458963740897626e-01 -5.5350585196810367e-02 -3.8273642328897883e-01 -1.4798602274730921e-01  5.0090300258747292e-02  1.7929056283266611e-03  6.5038104965194771e-02
                        -4.0597817372895134e-03  6.9642922765168272e-02
                        -3.2287698491459876e-01  2.8788135830544181e-01 -1.4798602274720332e-01  5.0090300258992755e-02 -7.2219854233967665e-02 -3.6737458188316130e-01 -5.1359045514744106e-03  6.2080072953838952e-02
                         2.5682965192698817e-03  6.3619655336336373e-02
                        -3.1208642950375465e-01  2.9243449214010270e-01  1.7929056286338407e-03  6.5038104965757973e-02 -5.1359045513104523e-03  6.2080072954031604e-02 -6.7598973039773413e-02 -3.6624430652227646e-01
                        -1.4524577226522664e-01  6.6719328927485125e-02
                        -3.2350281275542664e-01  2.9716014209714153e-01 -4.0597817375403571e-03  6.9642922764896892e-02  2.5682965191015572e-03  6.3619655336358744e-02 -1.4524577226489277e-01  6.6719328927924523e-02
                        -5.2770093787994826e-02 -3.5142852276475944e-01
1.182828282828283e+01 -1.5459399168321544e-01 -1.3497843649052546e-01 -3.4286321466939401e-01  2.9814874556502413e-01 -3.1975000329674980e-01  2.9121888849040006e-01 -3.0890651182426615e-01  2.9570933143798517e-01
                        -3.2024160066838581e-01  3.0050632152127638e-01
                        -3.4286321466952585e-01  2.9814874556508714e-01 -5.8201186678052547e-02 -3.8295875196885631e-01 -1.4828611700275918e-01  5.0621651759776995e-02  2.9758524391685702e-03  6.4689584319414836e-02
                        -2.8408238739677889e-03  6.9335943602918268e-02
                        -3.1975000329668901e-01  2.9121888849071120e-01 -1.4828611700262273e-01  5.0621651760035052e-02 -7.4904363107628574e-02 -3.6740459807500842e-01 -4.0494187578141022e-03  6.1777289185468723e-02
                         3.7192410098942650e-03  6.3260868190298275e-02
                        -3.0890651182410045e-01  2.9570933143815648e-01  2.9758524395499990e-03  6.4689584320002200e-02 -4.0494187576468246e-03  6.1777289185667807e-02 -7.0155344081425444e-02 -3.6632981246271723e-01
                        -1.4531252875556733e-01  6.7201415093003883e-02
                        -3.2024160066840957e-01  3.0050632152147472e-01 -2.8408238742580233e-03  6.9335943602638436e-02  3.7192410097228673e-03  6.3260868190326336e-02 -1.4531252875515427e-01  6.7201415093456937e-02
                        -5.5276009467693371e-02 -3.5169836749212302e-01
1.183232323232323e+01 -1.5841639447607589e-01 -1.3181992344344998e-01 -3.3961085325860302e-01  3.0166944560046749e-01 -3.1658936126891740e-01  2.9451967528232836e-01 -3.0569218430356965e-01  2.9894672593071914e-01
                        -3.1694562648001917e-01  3.0381338451988316e-01
                        -3.3961085325873885e-01  3.0166944560053754e-01 -6.1055086630678199e-02 -3.8314979995083520e-01 -1.4858533906493954e-01  5.1169667038108393e-02  4.1467589891366011e-03  6.4322243524043532e-02
                        -1.6337412486816122e-03  6.9009912359851835e-02
                        -3.1658936126883247e-01  2.9451967528265183e-01 -1.4858533906477173e-01  5.1169667038377331e-02 -7.7589654159663263e-02 -3.6740528764823022e-01 -2.9742936719475725e-03  6.1457209241149641e-02
                         4.8580649517576437e-03  6.2883939771755576e-02
                        -3.0569218430336587e-01  2.9894672593089866e-01  4.1467589895944927e-03  6.4322243524651296e-02 -2.9742936717827790e-03  6.1457209241350307e-02 -7.2713690883361853e-02 -3.6638783208963738e-01
                        -1.4537928228531566e-01  6.7697344286309122e-02
                        -3.1694562648004726e-01  3.0381338452008910e-01 -1.6337412490099663e-03  6.9009912359565509e-02  4.8580649515875297e-03  6.2883939771789410e-02 -1.4537928228481983e-01  6.7697344286775110e-02
                        -5.7785685123695502e-02 -3.5194077757563219e-01
1.183636363636364e+01 -1.6217104278828468e-01 -1.2860062387660659e-01 -3.3632315070730379e-01  3.0515141075041030e-01 -3.1339558765847503e-01  2.9778341781295359e-01 -3.0244398848595422e-01  3.0214633290152537e-01
                        -3.1361546870397100e-01  3.0708098670454170e-01
                        -3.3632315070744140e-01  3.0515141075048624e-01 -6.3911945755790012e-02 -3.8330948925902641e-01 -1.4888341459885113e-01  5.1734394540666737e-02  5.3054012200420952e-03  6.3936399360838475e-02
                        -4.3875460210458079e-04  6.8665150653634405e-02
                        -3.1339558765836556e-01  2.9778341781328577e-01 -1.4888341459865209e-01  5.1734394540944480e-02 -8.0275408790634800e-02 -3.6737660800817817e-01 -1.9107326408770448e-03  6.1120133773598297e-02
                         5.9845573616719629e-03  6.2489185026506702e-02
                        -3.0244398848571152e-01  3.0214633290171333e-01  5.3054012205763701e-03  6.3936399361462143e-02 -1.9107326407196944e-03  6.1120133773796562e-02 -7.5273705690856840e-02 -3.6641829735538528e-01
                        -1.4544577890398444e-01  6.8207182452788048e-02
                        -3.1361546870400470e-01  3.0708098670475137e-01 -4.3875460246898417e-04  6.8665150653343568e-02  5.9845573615067739e-03  6.2489185026546108e-02 -1.4544577890340482e-01  6.8207182453265083e-02
                        -6.0298811113003892e-02 -3.5215566712196045e-01
1.184040404040404e+01 -1.6585687806073249e-01 -1.2532206661224110e-01 -3.3300067655877719e-01  3.0859432575992185e-01 -3.1016921273343223e-01  3.0100982570983026e-01 -2.9916246846732192e-01  3.0530782051158151e-01
                        -3.1025170841822819e-01  3.1030879541933831e-01
                        -3.3300067655891480e-01  3.0859432576000306e-01 -6.6771422223960306e-02 -3.8343774369710676e-01 -1.4918006730765201e-01  5.2315881138815482e-02  6.4515623422662510e-03  6.3532368666393987e-02
                         7.4392281776599397e-04  6.8301979919815889e-02
                        -3.1016921273329850e-01  3.0100982571016754e-01 -1.4918006730742273e-01  5.2315881139099865e-02 -8.2961306434279194e-02 -3.6731851826812467e-01 -8.5893221071771885e-04  6.0766363306692613e-02
                         7.0985143860867045e-03  6.2076918744030200e-02
                        -2.9916246846704059e-01  3.0530782051177785e-01  6.4515623428747599e-03  6.3532368667028633e-02 -8.5893221057191144e-04  6.0766363306885347e-02 -7.7835078240814676e-02 -3.6642114220964889e-01
                        -1.4551176229154081e-01  6.8730993689265343e-02
                        -3.1025170841826871e-01  3.1030879541954826e-01  7.4392281736831880e-04  6.8301979919522790e-02  7.0985143859294483e-03  6.2076918744074693e-02 -1.4551176229087887e-01  6.8730993689750775e-02
                        -6.2815075000997117e-02 -3.5234295228168766e-01
1.184444444444444e+01 -1.6947287857215629e-01 -1.2198579798254156e-01 -3.2964400183900061e-01  3.1199788686691415e-01 -3.0691076791043770e-01  3.0419861907185941e-01 -2.9584817058740470e-01  3.0843086779423357e-01
                        -3.0685492893578609e-01  3.1349648973463462e-01
                        -3.2964400183913645e-01  3.1199788686699959e-01 -6.9633171649144898e-02 -3.8353448894497311e-01 -1.4947501887250556e-01  5.2914172057987076e-02  7.5850327225640453e-03  6.3110468186091312e-02
                         1.9140851349345597e-03  6.7920721259554617e-02
                        -3.0691076791028049e-01  3.0419861907219814e-01 -1.4947501887224779e-01  5.2914172058275782e-02 -8.5647024535105573e-02 -3.6723097933127491e-01  1.8091776352133736e-04  6.0396198103271244e-02
                         8.1997391866788574e-03  6.1647455417214052e-02
                        -2.9584817058708618e-01  3.0843086779443774e-01  7.5850327232427983e-03  6.3110468186731772e-02  1.8091776365233088e-04  6.0396198103456027e-02 -8.0397495751914197e-02 -3.6639630269342771e-01
                        -1.4557697371343006e-01  6.9268840163769857e-02
                        -3.0685492893583421e-01  3.1349648973484207e-01  1.9140851345069755e-03  6.7920721259261324e-02  8.1997391865319923e-03  6.1647455417262978e-02 -1.4557697371268929e-01  6.9268840164260478e-02
                        -6.5334161553335768e-02 -3.5250255135410197e-01
1.184848484848485e+01 -1.7301805960971775e-01 -1.1859338088416183e-01 -3.2625369873674614e-01  3.1536180177262574e-01 -3.0362078546395133e-01  3.0734952843364988e-01 -2.9250164312311666e-01  3.1151516463725049e-01
                        -3.0342571547665720e-01  3.1664376042824049e-01
                        -3.2625369873687865e-01  3.1536180177271417e-01 -7.2496847065247116e-02 -3.8359965265386459e-01 -1.4976798889511961e-01  5.3529310805097034e-02  8.7056097692551643e-03  6.2671014432323008e-02
                         3.0715337219893576e-03  6.7521695291837755e-02
                        -3.0362078546377247e-01  3.0734952843398700e-01 -1.4976798889483561e-01  5.3529310805387705e-02 -8.8332238528005397e-02 -3.6711395397130581e-01  1.2086340059370892e-03  6.0009938036997897e-02
                         9.2880418235273786e-03  6.1201109106354352e-02
                        -2.9250164312276317e-01  3.1151516463746132e-01  8.7056097699985575e-03  6.2671014432964078e-02  1.2086340060506538e-03  6.0009938037172861e-02 -8.2960642917053101e-02 -3.6634371703131685e-01
                        -1.4564115197854968e-01  6.9820782033331447e-02
                        -3.0342571547671326e-01  3.1664376042844267e-01  3.0715337215357838e-03  6.7521695291546419e-02  9.2880418233928334e-03  6.1201109106406866e-02 -1.4564115197773544e-01  6.9820782033823747e-02
                        -6.7855752730770408e-02 -3.5263438489016902e-01
1.185252525252525e+01 -1.7649147361356479e-01 -1.1514639383724984e-01 -3.2283034028538671e-01  3.1868578959972266e-01 -3.0029979823729053e-01  3.1046229471850573e-01 -2.8912343598385798e-01  3.1456041175305460e-01
                        -2.9996465484192048e-01  3.1975030995390741e-01
                        -3.2283034028551444e-01  3.1868578959981347e-01 -7.5362098905032954e-02 -3.8363316454000418e-01 -1.5005869484297646e-01  5.4161339093834457e-02  9.8130978148666653e-03  6.2214323547083311e-02
                         4.2160770740089608e-03  6.7105222010292592e-02
                        -3.0029979823709207e-01  3.1046229471883802e-01 -1.5005869484266926e-01  5.4161339094124794e-02 -9.1016621819597937e-02 -3.6696740691151419e-01  2.2240397055706242e-03  5.9607882468368643e-02
                         1.0363239135937716e-02  6.0738193307508508e-02
                        -2.8912343598347234e-01  3.1456041175327093e-01  9.8130978156677137e-03  6.2214323547719934e-02  2.2240397056648171e-03  5.9607882468532436e-02 -8.5524201897823615e-02 -3.6626332572216991e-01
                        -1.4570403340018379e-01  7.0386877359915626e-02
                        -2.9996465484198498e-01  3.1975030995410259e-01  4.2160770735336700e-03  6.7105222010005169e-02  1.0363239135816896e-02  6.0738193307563748e-02 -1.4570403339930316e-01  7.0386877360405942e-02
                        -7.0379527686566815e-02 -3.5273837579369915e-01
1.185656565656566e+01 -1.7989221029586636e-01 -1.1164643004978268e-01 -3.1937450004699403e-01  3.2196958083823612e-01 -2.9694833935608422e-01  3.1353666918024770e-01 -2.8571410040933160e-01  3.1756632063716583e-01
                        -2.9647233509039833e-01  3.2281585239738819e-01
                        -3.1937450004711593e-01  3.2196958083832805e-01 -7.8228574981209553e-02 -3.8363495647683110e-01 -1.5034685199726006e-01  5.4810296767937527e-02  1.0907307996336253e-02  6.1740711169001053e-02
                         5.3475306799052186e-03  6.6671620644668597e-02
                        -2.9694833935586867e-01  3.1353666918057244e-01 -1.5034685199693293e-01  5.4810296768225353e-02 -9.3699845771144930e-02 -3.6679130490266748e-01  3.2269644001817971e-03  5.9190330124927956e-02
                         1.1425154621024038e-02  6.0259020825272666e-02
                        -2.8571410040891748e-01  3.1756632063738621e-01  1.0907307997186842e-02  6.1740711169628440e-02  3.2269644002553798e-03  5.9190330125079627e-02 -8.8087852320851409e-02 -3.6615507162822708e-01
                        -1.4576535175990632e-01  7.0967182024617909e-02
                        -2.9647233509047133e-01  3.2281585239757454e-01  5.3475306794128711e-03  6.6671620644387003e-02  1.1425154620917930e-02  6.0259020825329641e-02 -1.4576535175896765e-01  7.0967182025102701e-02
                        -7.2905162766363232e-02 -3.5281444942077067e-01
1.186060606060606e+01 -1.8321939673477664e-01 -1.0809509648805297e-01 -3.1588675179936015e-01  3.2521291727950685e-01 -2.9356694194472227e-01  3.1657241333405450e-01 -2.8227418867048276e-01  3.2053261351505902e-01
                        -2.9294934521859584e-01  3.2584011342027153e-01
                        -3.1588675179947512e-01  3.2521291727959911e-01 -8.1095920469430843e-02 -3.8360496258590404e-01 -1.5063217340347573e-01  5.5476221722547139e-02  1.1988058132867586e-02  6.1250492304897847e-02
                         6.4657168912983266e-03  6.6221209527076372e-02
                        -2.9356694194449245e-01  3.1657241333436920e-01 -1.5063217340313245e-01  5.5476221722830434e-02 -9.6381579682823210e-02 -3.6658561679966506e-01  4.2172438580431260e-03  5.8757578985764308e-02
                         1.2473618310141241e-02  5.9763903650059291e-02
                        -2.8227418867004461e-01  3.2053261351528217e-01  1.1988058133758570e-02  6.1250492305511606e-02  4.2172438580952969e-03  5.8757578985903253e-02 -9.0651271275788134e-02 -3.6601890006279986e-01
                        -1.4582483827445378e-01  7.1561749640225741e-02
                        -2.9294934521867705e-01  3.2584011342044750e-01  6.4657168907938300e-03  6.6221209526802147e-02  1.2473618310050418e-02  5.9763903650117016e-02 -1.4582483827346659e-01  7.1561749640701597e-02
                        -7.5432331510231460e-02 -3.5286253367747022e-01
1.186464646464647e+01 -1.8647219744384100e-01 -1.0449401295410060e-01 -3.1236766922654041e-01  3.2841555193837274e-01 -2.9015613884635250e-01  3.1956929887654628e-01 -2.7880425377413193e-01  3.2345902327768927e-01
                        -2.8939627484450087e-01  3.2882283019185571e-01
                        -3.1236766922664749e-01  3.2841555193846428e-01 -8.3963777893026587e-02 -3.8354311932657204e-01 -1.5091436982475975e-01  5.6159149823729979e-02  1.3055172601543584e-02  6.0743981205951710e-02
                         7.5704647890325952e-03  6.5754305963065515e-02
                        -2.9015613884611152e-01  3.1956929887684882e-01 -1.5091436982440443e-01  5.6159149824006889e-02 -9.9061490779176531e-02 -3.6635031363712489e-01  5.1947199578472525e-03  5.8309926170354229e-02
                         1.3508466643270736e-02  5.9253152839948170e-02
                        -2.7880425377367424e-01  3.2345902327791354e-01  1.3055172602465050e-02  6.0743981206547899e-02  5.1947199578778131e-03  5.8309926170480149e-02 -9.3214133314777903e-02 -3.6585475887661906e-01
                        -1.4588222156556863e-01  7.2170631462253970e-02
                        -2.8939627484459002e-01  3.2882283019202041e-01  7.5704647885210582e-03  6.5754305962800089e-02  1.3508466643195398e-02  5.9253152840005666e-02 -1.4588222156454342e-01  7.2170631462717960e-02
                        -7.7960704656742222e-02 -3.5288255911602823e-01
1.186868686868687e+01 -1.8964981441740128e-01 -1.0084481117083788e-01 -3.0881782561347521e-01  3.3157724896386875e-01 -2.8671646234693732e-01  3.2252710759538067e-01 -2.7530484917183667e-01  3.2634529340597307e-01
                        -2.8581371389580457e-01  3.3176375130936375e-01
                        -3.0881782561357368e-01  3.3157724896395868e-01 -8.6831787109276942e-02 -3.8344936558451809e-01 -1.5119314969787334e-01  5.6859114826262332e-02  1.4108482210813100e-02  6.0221491248540142e-02
                         8.6616100474534077e-03  6.5271226107620248e-02
                        -2.8671646234668852e-01  3.2252710759566888e-01 -1.5119314969751013e-01  5.6859114826531304e-02 -1.0173924419559308e-01 -3.6608536870402414e-01  6.1592405668340327e-03  5.7847667831818800e-02
                         1.4529542341475268e-02  5.8727078407178092e-02
                        -2.7530484917136461e-01  3.2634529340619756e-01  1.4108482211754685e-02  6.0221491249115439e-02  6.1592405668431860e-03  5.7847667831931640e-02 -9.5776110453243413e-02 -3.6566259854296096e-01
                        -1.4593722763280789e-01  7.2793876298560808e-02
                        -2.8581371389590127e-01  3.3176375130951596e-01  8.6616100469400822e-03  6.5271226107364716e-02  1.4529542341415293e-02  5.8727078407234394e-02 -1.4593722763175573e-01  7.2793876299010352e-02
                        -8.0489950148859443e-02 -3.5287445902943859e-01
1.187272727272727e+01 -1.9275148715260096e-01 -9.7149133875553448e-02 -3.0523779354520580e-01  3.3469778353875645e-01 -2.8324844390384241e-01  3.2544563126866582e-01 -2.7177652847347100e-01  3.2919117788456020e-01
                        -2.8220225230305412e-01  3.3466263670684293e-01
                        -3.0523779354529523e-01  3.3469778353884372e-01 -8.9699585297085188e-02 -3.8332364275929076e-01 -1.5146821909187314e-01  5.7576148289765608e-02  1.5147824071978537e-02  5.9683334819831173e-02
                         9.7389947965764584e-03  6.4772284846143044e-02
                        -2.8324844390358922e-01  3.2544563126893833e-01 -1.5146821909150657e-01  5.7576148290025261e-02 -1.0441450296568512e-01 -3.6579075761752217e-01  7.1106594172512328e-03  5.7371099054651216e-02
                         1.5536694277547489e-02  5.8185989209340240e-02
                        -2.7177652847298978e-01  3.2919117788478336e-01  1.5147824072929441e-02  5.9683334820382863e-02  7.1106594172395442e-03  5.7371099054751011e-02 -9.8336872171864764e-02 -3.6544237224166953e-01
                        -1.4598957982931066e-01  7.3431530417648064e-02
                        -2.8220225230315771e-01  3.3466263670698210e-01  9.7389947960665121e-03  6.4772284845898254e-02  1.5536694277502485e-02  5.8185989209394481e-02 -1.4598957982824323e-01  7.3431530418081120e-02
                        -8.3019733141514909e-02 -3.5283816954465730e-01
1.187676767676768e+01 -1.9577649264855737e-01 -9.3408633922523826e-02 -3.0162814461124882e-01  3.3777694176816064e-01 -2.7975261387947625e-01  3.2832467155446549e-01 -2.6821984516606140e-01  3.3199644110519144e-01
                        -2.7856247969829917e-01  3.3751925755306367e-01
                        -3.0162814461132870e-01  3.3777694176824435e-01 -9.2566806945858823e-02 -3.8316589485094710e-01 -1.5173928166944722e-01  5.8310279493267184e-02  1.6173041468795519e-02  5.9129823208196680e-02
                         1.0802467482264792e-02  6.4257795680504479e-02
                        -2.7975261387922234e-01  3.2832467155472089e-01 -1.5173928166908163e-01  5.8310279493516422e-02 -1.0708692800940861e-01 -3.6546645839611075e-01  8.0488359812505017e-03  5.6880513756980111e-02
                         1.6529777344962849e-02  5.7630192845341668e-02
                        -2.6821984516557651e-01  3.3199644110541254e-01  1.6173041469744760e-02  5.9129823208722669e-02  8.0488359812189401e-03  5.6880513757067104e-02 -1.0089608541958855e-01 -3.6519403594220806e-01
                        -1.4603899884051280e-01  7.4083637455736609e-02
                        -2.7856247969840897e-01  3.3751925755318923e-01  1.0802467481763438e-02  6.4257795680271027e-02  1.6529777344932203e-02  5.7630192845393016e-02 -1.4603899883944199e-01  7.4083637456151694e-02
                        -8.5549716010677040e-02 -3.5277362971448684e-01
1.188080808080808e+01 -1.9872414538338071e-01 -8.9624973395308755e-02 -2.9798944911555508e-01  3.4081452055770795e-01 -2.7622950128037072e-01  3.3116403987076953e-01 -2.6463535233828300e-01  3.3476085776004905e-01
                        -2.7489498511965882e-01  3.4033339613883240e-01
                        -2.9798944911562530e-01  3.4081452055778727e-01 -9.5433083845508651e-02 -3.8297606854593663e-01 -1.5200603865090595e-01  5.9061535348276212e-02  1.7183983725332322e-02  5.8561266498503392e-02
                         1.1851882724566502e-02  6.3728070620217375e-02
                        -2.7622950128011975e-01  3.3116403987100707e-01 -1.5200603865054590e-01  5.9061535348514299e-02 -1.0975617812185494e-01 -3.6511245153222976e-01  8.9736353443526009e-03  5.6376204597416060e-02
                         1.7508652325281513e-02  5.7059995556186162e-02
                        -2.6463535233780000e-01  3.3476085776026704e-01  1.7183983726268889e-02  5.8561266499002278e-02  8.9736353443023529e-03  5.6376204597490556e-02 -1.0345341461759404e-01 -3.6491754848586760e-01
                        -1.4608520266579680e-01  7.4750238322720139e-02
                        -2.7489498511977384e-01  3.4033339613894409e-01  1.1851882724078840e-02  6.3728070619995497e-02  1.7508652325264336e-02  5.7059995556233901e-02 -1.4608520266473457e-01  7.4750238323116475e-02
                        -8.8079558363817784e-02 -3.5268078160825611e-01
1.188484848484848e+01 -2.0159379726967455e-01 -8.5799822729346026e-02 -2.9432227579253700e-01  3.4381032748151302e-01 -2.7267963350213886e-01  3.3396355726627014e-01 -2.6102360241106959e-01  3.3748421272545781e-01
                        -2.7120035672228099e-01  3.4310484575409911e-01
                        -2.9432227579259723e-01  3.4381032748158719e-01 -9.8298045077431201e-02 -3.8275411330235998e-01 -1.5226818878081416e-01  5.9829940310447846e-02  1.8180506072219008e-02  5.7977973472342549e-02
                         1.2887101174347411e-02  6.3183420078799540e-02
                        -2.7267963350189423e-01  3.3396355726648952e-01 -1.5226818878046408e-01  5.9829940310674228e-02 -1.1242190996260595e-01 -3.6472872006449930e-01  9.8849280775998808e-03  5.5858462886533802e-02
                         1.8473185754126722e-02  5.6475702130627865e-02
                        -2.6102360241059397e-01  3.3748421272567225e-01  1.8180506073132041e-02  5.7977973472813658e-02  9.8849280775324157e-03  5.5858462886596155e-02 -1.0600852166410468e-01 -3.6461287166727163e-01
                        -1.4612790660305963e-01  7.5431371107084894e-02
                        -2.7120035672240056e-01  3.4310484575419631e-01  1.2887101173878431e-02  6.3183420078589236e-02  1.8473185754122011e-02  5.6475702130671365e-02 -1.4612790660201780e-01  7.5431371107462286e-02
                        -9.0608917051640869e-02 -3.5255957040141345e-01
1.188888888888889e+01 -2.0438483758918427e-01 -8.1934859845396599e-02 -2.9062719152958411e-01  3.4676418064039966e-01 -2.6910353608069720e-01  3.3672305428230920e-01 -2.5738514687473840e-01  3.4016630093633804e-01
                        -2.6747918149611732e-01  3.4583341055526984e-01
                        -2.9062719152963451e-01  3.4676418064046788e-01 -1.0116131700637185e-01 -3.8249998143474195e-01 -1.5252542829724813e-01  6.0615516289907675e-02  1.9162469511427013e-02  5.7380251513250956e-02
                         1.3907989368364697e-02  6.2624152775380165e-02
                        -2.6910353608046250e-01  3.3672305428250987e-01 -1.5252542829691218e-01  6.0615516290122115e-02 -1.1508377804557532e-01 -3.6431524964971490e-01  1.0782590108524405e-02  5.5327578503035692e-02
                         1.9423249785877943e-02  5.5877615815742590e-02
                        -2.5738514687427572e-01  3.4016630093654865e-01  1.9162469512305904e-02  5.7380251513694254e-02  1.0782590108441360e-02  5.5327578503086242e-02 -1.0856106593996415e-01 -3.6427997031531406e-01
                        -1.4616682323618047e-01  7.6127070979883138e-02
                        -2.6747918149624050e-01  3.4583341055535255e-01  1.3907989367919069e-02  6.2624152775181116e-02  1.9423249785884569e-02  5.5877615815781267e-02 -1.4616682323517072e-01  7.6127070980242004e-02
                        -9.3137446180966005e-02 -3.5240994446415275e-01
1.189292929292929e+01 -2.0709669290729663e-01 -7.8031769294334002e-02 -2.8690476109645757e-01  3.4967590851076913e-01 -2.6550173245010139e-01  3.3944237080639383e-01 -2.5372053603298911e-01  3.4280692725182837e-01
                        -2.6373204499088876e-01  3.4851890542316699e-01
                        -2.8690476109649815e-01  3.4967590851083041e-01 -1.0402252327309386e-01 -3.8221362819845961e-01 -1.5277745090366152e-01  6.1418282560309637e-02  2.0129740679727705e-02  5.6768406516968323e-02
                         1.4914419582935063e-02  6.2050575641598334e-02
                        -2.6550173244987979e-01  3.3944237080657591e-01 -1.5277745090334399e-01  6.1418282560512183e-02 -1.1774143472928462e-01 -3.6387202863475843e-01  1.1666502591067072e-02  5.4783839814634840e-02
                         2.0358722057223881e-02  5.5266038232455947e-02
                        -2.5372053603254463e-01  3.4280692725203488e-01  2.0129740680562312e-02  5.6768406517384518e-02  1.1666502590970233e-02  5.4783839814673989e-02 -1.1111070431492001e-01 -3.6391881237367235e-01
                        -1.4620166242536739e-01  7.6837370097846067e-02
                        -2.6373204499101455e-01  3.4851890542323483e-01  1.4914419582517283e-02  6.2050575641409957e-02  2.0358722057240597e-02  5.5266038232489441e-02 -1.4620166242440091e-01  7.6837370098187446e-02
                        -9.5664797128686155e-02 -3.5223185544919644e-01
1.189696969696970e+01 -2.0972882696808873e-01 -7.4092241413728874e-02 -2.8315554688190769e-01  3.5254534978454405e-01 -2.6187474370730701e-01  3.4212135591768833e-01 -2.5003031875410164e-01  3.4540590631251855e-01
                        -2.5995953104858549e-01  3.5116115581208746e-01
                        -2.8315554688193884e-01  3.5254534978459801e-01 -1.0688128478779342e-01 -3.8189501187396557e-01 -1.5302394774334321e-01  6.2238255666697391e-02  2.1082191710982190e-02  5.6142742806769917e-02
                         1.5906269686355553e-02  6.1462993733834737e-02
                        -2.6187474370710179e-01  3.4212135591785231e-01 -1.5302394774304784e-01  6.2238255666888315e-02 -1.2039453020753860e-01 -3.6339904812857016e-01  1.2536551774586803e-02  5.4227533603690849e-02
                         2.1279485549723857e-02  5.4641269296060245e-02
                        -2.5003031875368048e-01  3.4540590631272122e-01  2.1082191711762840e-02  5.6142742807160209e-02  1.2536551774478029e-02  5.4227533603718979e-02 -1.1365709115457431e-01 -3.6352936898103194e-01
                        -1.4623213130035909e-01  7.7562297505720648e-02
                        -2.5995953104871283e-01  3.5116115581214058e-01  1.5906269685969778e-02  6.1462993733656178e-02  2.1279485549749351e-02  5.4641269296088237e-02 -1.4623213129944662e-01  7.7562297506046318e-02
                        -9.8190618556731904e-02 -3.5202525837886028e-01
1.190101010101010e+01 -2.1228074057063420e-01 -7.0117971496646850e-02 -2.7938010863785262e-01  3.5537235320061572e-01 -2.5822308838415592e-01  3.4475986772488826e-01 -2.4631504222964312e-01  3.4796306238972197e-01
                        -2.5616222154382629e-01  3.5375999759041377e-01
                        -2.7938010863787471e-01  3.5537235320066163e-01 -1.0973721972420715e-01 -3.8154409385094878e-01 -1.5326460737644571e-01  6.3075449332232497e-02  2.2019700097413233e-02  5.5503563053908057e-02
                         1.6883422990233554e-02  6.0861710150813618e-02
                        -2.5822308838397001e-01  3.4475986772503464e-01 -1.5326460737617614e-01  6.3075449332412353e-02 -1.2304271250046916e-01 -3.6289630207433299e-01  1.3392628872097760e-02  5.3658944997627384e-02
                         2.2185428451525505e-02  5.4003607141747859e-02
                        -2.4631504222925005e-01  3.4796306238992120e-01  2.2019700098130948e-02  5.5503563054274382e-02  1.3392628871979017e-02  5.3658944997644842e-02 -1.1619987832796508e-01 -3.6311161455116248e-01
                        -1.4625793425645675e-01  7.8301879037907363e-02
                        -2.5616222154395418e-01  3.5375999759045207e-01  1.6883422989883570e-02  6.0861710150643872e-02  2.2185428451558381e-02  5.4003607141770174e-02 -1.4625793425560824e-01  7.8301879038219488e-02
                        -1.0071455642798047e-01 -3.5179011173152291e-01
1.190505050505051e+01 -2.1475197142725952e-01 -6.6110658973058928e-02 -2.7557900323143586e-01  3.5815677736821805e-01 -2.5454728222687606e-01  3.4735777319687988e-01 -2.4257525174097902e-01  3.5047822922722438e-01
                        -2.5234069613238874e-01  3.5631527687322673e-01
                        -2.7557900323144924e-01  3.5815677736825535e-01 -1.1258994351435654e-01 -3.8116083871257667e-01 -1.5349911575956285e-01  6.3929874363846853e-02  2.2942148550009017e-02  5.4851168203195397e-02
                         1.7845768099880612e-02  6.0247025956608774e-02
                        -2.5454728222671236e-01  3.4735777319700950e-01 -1.5349911575932240e-01  6.3929874364016398e-02 -1.2568562744591813e-01 -3.6236378732201507e-01  1.4234629927871842e-02  5.3078357404157644e-02
                         2.3076444018383432e-02  5.3353348055186878e-02
                        -2.4257525174061847e-01  3.5047822922742089e-01  2.2942148550655534e-02  5.4851168203540135e-02  1.4234629927745053e-02  5.3078357404164743e-02 -1.1873871521574397e-01 -3.6266552685298337e-01
                        -1.4627877295335801e-01  7.9056137219468622e-02
                        -2.5234069613251620e-01  3.5631527687325038e-01  1.7845768099569882e-02  6.0247025956446529e-02  2.3076444018422362e-02  5.3353348055203455e-02 -1.4627877295258268e-01  7.9056137219770048e-02
                        -1.0323625402304845e-01 -3.5152637752763050e-01
1.190909090909091e+01 -2.1714209400450471e-01 -6.2072006604133215e-02 -2.7175278440517109e-01  3.6089849058272183e-01 -2.5084783798327187e-01  3.4991494798665135e-01 -2.3881149043377400e-01  3.5295124987599880e-01
                        -2.4849553200810787e-01  3.5882684984743485e-01
                        -2.7175278440517642e-01  3.6089849058275014e-01 -1.1543906884395359e-01 -3.8074521431995023e-01 -1.5372715622783784e-01  6.4801538556890234e-02  2.3849424858230391e-02  5.4185857403739490e-02
                         1.8793198763949318e-02  5.9619240109067363e-02
                        -2.5084783798313254e-01  3.4991494798676537e-01 -1.5372715622762953e-01  6.4801538557050495e-02 -1.2832291869120110e-01 -3.6180150370140723e-01  1.5062455684563178e-02  5.2486052451326669e-02
                         2.3952430434147059e-02  5.2690786408143980e-02
                        -2.3881149043345012e-01  3.5295124987619331e-01  2.3849424858798211e-02  5.4185857404065577e-02  1.5062455684430324e-02  5.2486052451323671e-02 -1.2127324871898451e-01 -3.6219108709074754e-01
                        -1.4629434631676444e-01  7.9825091166591519e-02
                        -2.4849553200823382e-01  3.5882684984744395e-01  1.8793198763680821e-02  5.9619240108911183e-02  2.3952430434190611e-02  5.2690786408154847e-02 -1.4629434631607072e-01  7.9825091166885381e-02
                        -1.0575535195797647e-01 -3.5123402141535220e-01
1.191313131313131e+01 -2.1945071934745500e-01 -5.8003719689765643e-02 -2.6790200254547575e-01  3.6359737063425246e-01 -2.4712526519787489e-01  3.5243127624883674e-01 -2.3502429910075870e-01  3.5538197652229914e-01
                        -2.4462730366843324e-01  3.6129458258984748e-01
                        -2.6790200254547358e-01  3.6359737063427156e-01 -1.1828420564840736e-01 -3.8029719189691463e-01 -1.5394840947957339e-01  6.5690446598814872e-02  2.4741421749163203e-02  5.3507927944855753e-02
                         1.9725613723459486e-02  5.8978649393678910e-02
                        -2.4712526519776237e-01  3.5243127624893644e-01 -1.5394840947939975e-01  6.5690446598966903e-02 -1.3095422768521930e-01 -3.6120945409580046e-01  1.5876011449985794e-02  5.1882309932391166e-02
                         2.4813290670854169e-02  5.2016214599174111e-02
                        -2.3502429910047512e-01  3.5538197652249248e-01  2.4741421749645762e-02  5.3507927945166449e-02  1.5876011449848782e-02  5.1882309932378259e-02 -1.2380312326858364e-01 -3.6168827998447756e-01
                        -1.4630435054273036e-01  8.0608756486558936e-02
                        -2.4462730366855698e-01  3.6129458258984204e-01  1.9725613723235898e-02  5.8978649393527149e-02  2.4813290670901045e-02  5.2016214599179399e-02 -1.4630435054212559e-01  8.0608756486848884e-02
                        -1.0827148820274214e-01 -3.5091301275601261e-01
1.191717171717172e+01 -2.2167749488818897e-01 -5.3907505289535522e-02 -2.6402720445973488e-01  3.6625330460963013e-01 -2.4338007001517439e-01  3.5490665045136505e-01 -2.3121421597288352e-01  3.5777027030963160e-01
                        -2.4073658268877740e-01  3.6371835087871340e-01
                        -2.6402720445972594e-01  3.6625330460963956e-01 -1.2112496110948331e-01 -3.7981674611534882e-01 -1.5416255356332359e-01  6.6596599971961976e-02  2.5618036746290859e-02  5.2817675197154870e-02
                         2.0642916560396411e-02  5.8325548362889092e-02
                        -2.4338007001509041e-01  3.5490665045145187e-01 -1.5416255356318681e-01  6.6596599972107137e-02 -1.3357919367098831e-01 -3.6058764451642794e-01  1.6675206963704108e-02  5.1267407755532825e-02
                         2.5658932348600894e-02  5.1329922999368928e-02
                        -2.3121421597264341e-01  3.5777027030982528e-01  2.5618036746682577e-02  5.2817675197453881e-02  1.6675206963564747e-02  5.1267407755510176e-02 -1.2632798083531716e-01 -3.6115709385077227e-01
                        -1.4630847910472111e-01  8.1407145177305656e-02
                        -2.4073658268889794e-01  3.6371835087869375e-01  2.0642916560219791e-02  5.8325548362740037e-02  2.5658932348649792e-02  5.1329922999368886e-02 -1.4630847910421171e-01  8.1407145177595674e-02
                        -1.1078429810063556e-01 -3.5056332470941559e-01
1.192121212121212e+01 -2.2382210423902857e-01 -4.9785071457315019e-02 -2.6012893316209168e-01  3.6886618868807364e-01 -2.3961275499109355e-01  3.5734097118162789e-01 -2.2738177651903257e-01  3.6011600115504694e-01
                        -2.3682393750583677e-01  3.6609803999918661e-01
                        -2.6012893316207686e-01  3.6886618868807314e-01 -1.2396093965261509e-01 -3.7930385518106402e-01 -1.5436926386744027e-01  6.7519996855496922e-02  2.6479172028041009e-02  5.2115392558810508e-02
                         2.1545015546040224e-02  5.7660229280864700e-02
                        -2.3961275499103973e-01  3.5734097118170355e-01 -1.5436926386734218e-01  6.7519996855636560e-02 -1.3619745367860603e-01 -3.5993608417780099e-01  1.7459956263578612e-02  5.0641621898407645e-02
                         2.6489267595336225e-02  5.0632199903163221e-02
                        -2.2738177651883873e-01  3.6011600115524212e-01  2.6479172028337227e-02  5.2115392559101817e-02  1.7459956263438645e-02  5.0641621898375407e-02 -1.2884746094056590e-01 -3.6059752068410522e-01
                        -1.4630642276334593e-01  8.2220265526616224e-02
                        -2.3682393750595343e-01  3.6609803999915280e-01  2.1545015545912288e-02  5.7660229280716548e-02  2.6489267595385890e-02  5.0632199903158176e-02 -1.4630642276293726e-01  8.2220265526910599e-02
                        -1.1329341438848844e-01 -3.5018493431917080e-01
1.192525252525253e+01 -2.2588426697127076e-01 -4.5638126489726032e-02 -2.5620772766812805e-01  3.7143592793110797e-01 -2.3582381891285384e-01  3.5973414694757888e-01 -2.2352751325443895e-01  3.6241904756019583e-01
                        -2.3288993321003981e-01  3.6843354454318111e-01
                        -2.5620772766810807e-01  3.7143592793109753e-01 -1.2679174294488316e-01 -3.7875850092043228e-01 -1.5456821311204547e-01  6.8460632026533130e-02  2.7324734286261965e-02  5.1401371407004876e-02
                         2.2431823489190018e-02  5.6982982073709408e-02
                        -2.3582381891283130e-01  3.5973414694764494e-01 -1.5456821311198754e-01  6.8460632026668800e-02 -1.3880864251869515e-01 -3.5925478557406115e-01  1.8230177552410361e-02  5.0005226367527716e-02
                         2.7304212906732812e-02  4.9923331484192493e-02
                        -2.2352751325429360e-01  3.6241904756039384e-01  2.7324734286459044e-02  5.1401371407292583e-02  1.8230177552271406e-02  5.0005226367485986e-02 -1.3136120066774143e-01 -3.6000955623872888e-01
                        -1.4629786957873059e-01  8.3048122011017189e-02
                        -2.3288993321015164e-01  3.6843354454313348e-01  2.2431823489112036e-02  5.6982982073560215e-02  2.7304212906782109e-02  4.9923331484182848e-02 -1.4629786957842678e-01  8.3048122011320294e-02
                        -1.1579846721775990e-01 -3.4977782259813472e-01
1.192929292929293e+01 -2.2786373838011006e-01 -4.1468378188516522e-02 -2.5226412279849053e-01  3.7396243606716506e-01 -2.3201375662726134e-01  3.6208609397422664e-01 -2.1965195555783748e-01  3.6467929641763475e-01
                        -2.2893513134716206e-01  3.7072476820412381e-01
                        -2.5226412279846627e-01  3.7396243606714458e-01 -1.2961696989374244e-01 -3.7818066886785195e-01 -1.5475907134340633e-01  6.9418496760503004e-02  2.8154634584802034e-02  5.0675901054529848e-02
                         2.3303257584461647e-02  5.6294094285109758e-02
                        -2.3201375662727108e-01  3.6208609397428482e-01 -1.5475907134338945e-01  6.9418496760636272e-02 -1.4141239277641870e-01 -3.5854376455645165e-01  1.8985793064843486e-02  4.9358493162453367e-02
                         2.8103689006300295e-02  4.9203601756174074e-02
                        -2.1965195555774239e-01  3.6467929641783692e-01  2.8154634584897368e-02  5.0675901054818340e-02  1.8985793064707036e-02  4.9358493162402158e-02 -1.3386883467450206e-01 -3.5939320011128123e-01
                        -1.4628250492549141e-01  8.3890715194429533e-02
                        -2.2893513134726851e-01  3.7072476820406242e-01  2.3303257584434332e-02  5.6294094284957623e-02  2.8103689006348173e-02  4.9203601756160321e-02 -1.4628250492529560e-01  8.3890715194745905e-02
                        -1.1829908417654379e-01 -3.4934197461406125e-01
1.193333333333334e+01 -2.2976030923638932e-01 -3.7277533137009690e-02 -2.4829864899160248e-01  3.7644563527128871e-01 -2.2818305887753473e-01  3.6439673599590189e-01 -2.1575562949747409e-01  3.6689664281279422e-01
                        -2.2496008972923767e-01  3.7297162356703495e-01
                        -2.4829864899157494e-01  3.7644563527125829e-01 -1.3243621664650984e-01 -3.7757034835416248e-01 -1.5494150593067924e-01  7.0393578730803430e-02  2.8968788218338093e-02  4.9939268711535437e-02
                         2.4159239260812742e-02  5.5593851037403129e-02
                        -2.2818305887757720e-01  3.6439673599595401e-01 -1.5494150593070405e-01  7.0393578730935921e-02 -1.4400833480610106e-01 -3.5780304041202032e-01  1.9726728934661545e-02  4.8701692244785467e-02
                         2.8887620705882983e-02  4.8473292538798722e-02
                        -2.1575562949743038e-01  3.6689664281300227e-01  2.8968788218330124e-02  4.9939268711829049e-02  1.9726728934528925e-02  4.8701692244724849e-02 -1.3636999520578599e-01 -3.5874845582419945e-01
                        -1.4626001151027473e-01  8.4748041626621057e-02
                        -2.2496008972933818e-01  3.7297162356696001e-01  2.4159239260836390e-02  5.5593851037246136e-02  2.8887620705928450e-02  4.8473292538781340e-02 -1.4626001151018886e-01  8.4748041626955262e-02
                        -1.2079489031250025e-01 -3.4887737957556331e-01
1.193737373737374e+01 -2.3157380552582915e-01 -3.3067295990682415e-02 -2.4431183212551033e-01  3.7888545594038747e-01 -2.2433221214870475e-01  3.6666600404471728e-01 -2.1183905766599839e-01  3.6907098982205572e-01
                        -2.2096536225480026e-01  3.7517403189440318e-01
                        -2.4431183212548030e-01  3.7888545594034728e-01 -1.3524907659067884e-01 -3.7692753259610784e-01 -1.5511518156499654e-01  7.1385861907755588e-02  2.9767114571614080e-02  4.9191759452398703e-02
                         2.4999694030462347e-02  5.4882534998042957e-02
                        -2.2433221214878010e-01  3.6666600404476546e-01 -1.5511518156506318e-01  7.1385861907888898e-02 -1.4659609672653923e-01 -3.5703263594364953e-01  2.0452915062626226e-02  4.8035091511932929e-02
                         2.9655936766696377e-02  4.7732683428601541e-02
                        -2.1183905766600672e-01  3.6907098982227116e-01  2.9767114571502249e-02  4.9191759452701815e-02  2.0452915062498623e-02  4.8035091511862922e-02 -1.3886431210773972e-01 -3.5807533091002913e-01
                        -1.4623006939182082e-01  8.5620093741505962e-02
                        -2.2096536225489427e-01  3.7517403189431531e-01  2.4999694030536795e-02  5.4882534997879172e-02  2.9655936766738604e-02  4.7732683428581148e-02 -1.4623006939184569e-01  8.5620093741862482e-02
                        -1.2328550815676381e-01 -3.4838403091847281e-01
1.194141414141414e+01 -2.3330408817639856e-01 -2.8839368781845003e-02 -2.4030419334883921e-01  3.8128183646450375e-01 -2.2046169852154540e-01  3.6889383623565275e-01 -2.0790275902419897e-01  3.7120224830739501e-01
                        -2.1695149873841479e-01  3.7733192290833550e-01
                        -2.4030419334880770e-01  3.8128183646445390e-01 -1.3805514035516958e-01 -3.7625221878692783e-01 -1.5527976026086665e-01  7.2395326456926909e-02  3.0549536979257427e-02  4.8433656187672189e-02
                         2.5824551338380863e-02  5.4160426351420238e-02
                        -2.2046169852165359e-01  3.6889383623569871e-01 -1.5527976026097484e-01  7.2395326457062634e-02 -1.4917530441712670e-01 -3.5623257755148813e-01  2.1164284985014010e-02  4.7358956775614955e-02
                         3.0408569761064538e-02  4.6982051774767074e-02
                        -2.0790275902425956e-01  3.7120224830761933e-01  3.0549536979042235e-02  4.8433656187989123e-02  2.1164284984892433e-02  4.7358956775535574e-02 -1.4135141284265557e-01 -3.5737383699669856e-01
                        -1.4619235600351360e-01  8.6506859755348275e-02
                        -2.1695149873850195e-01  3.7733192290823481e-01  2.5824551338505478e-02  5.4160426351247869e-02  3.0408569761102774e-02  4.6982051774744273e-02 -1.4619235600364894e-01  8.6506859755731511e-02
                        -1.2577055774891929e-01 -3.4786192639267288e-01
1.194545454545455e+01 -2.3495105277438852e-01 -2.4595450238524493e-02 -2.3627624892095758e-01  3.8363472299445739e-01 -2.1657199553512113e-01  3.7108017754860256e-01 -2.0394724875365874e-01  3.7329033670795897e-01
                        -2.1291904474958595e-01  3.7944523456936341e-01
                        -2.3627624892092555e-01  3.8363472299439827e-01 -1.4085399581252486e-01 -3.7554440818817514e-01 -1.5543490135985347e-01  7.3421948636824469e-02  3.1315982586308098e-02  4.7665239641092594e-02
                         2.6633744412491129e-02  5.3427802776022194e-02
                        -2.1657199553526160e-01  3.7108017754864825e-01 -1.5543490136000249e-01  7.3421948636964107e-02 -1.5174558151482187e-01 -3.5540289531588021e-01  2.1860775742976481e-02  4.6673551745078930e-02
                         3.1145455934987253e-02  4.6221672659845003e-02
                        -2.0394724875377115e-01  3.7329033670819356e-01  3.1315982585991019e-02  4.7665239641427416e-02  2.1860775742861747e-02  4.6673551744990154e-02 -1.4383092250494656e-01 -3.5664398989384466e-01
                        -1.4614654617837555e-01  8.7408323564887674e-02
                        -2.1291904474966600e-01  3.7944523456925017e-01  2.6633744412664879e-02  5.3427802775839438e-02  3.1145455935020910e-02  4.6221672659820412e-02 -1.4614654617862005e-01  8.7408323565301815e-02
                        -1.2824965666304838e-01 -3.4731106814948659e-01
1.194949494949495e+01 -2.3651462926980701e-01 -2.0337235117472867e-02 -2.3222851006128159e-01  3.8594406920631041e-01 -2.1266357605786662e-01  3.7322497960779533e-01 -1.9997303811824416e-01  3.7533518082901440e-01
                        -2.0886854146095868e-01  3.8151391285236769e-01
                        -2.3222851006124998e-01  3.8594406920624236e-01 -1.4364522808217262e-01 -3.7480410622282179e-01 -1.5558026153650567e-01  7.4465700695999573e-02  3.2066382209624662e-02  4.6886788331597679e-02
                         2.7427210114752808e-02  5.2684939426876930e-02
                        -2.1266357605803865e-01  3.7322497960784218e-01 -1.5558026153669446e-01  7.4465700696144582e-02 -1.5430654941209454e-01 -3.5454362308184922e-01  2.2542327752876623e-02  4.5979138014984620e-02
                         3.1866535071695110e-02  4.5451818885320960e-02
                        -1.9997303811840758e-01  3.7533518082926087e-01  3.2066382209208120e-02  4.6886788331954352e-02  2.2542327752769376e-02  4.5979138014886532e-02 -1.4630246383828377e-01 -3.5588580968024419e-01
                        -1.4609231217646665e-01  8.8324464645435197e-02
                        -2.0886854146103132e-01  3.8151391285224245e-01  2.7427210114974173e-02  5.2684939426682141e-02  3.1866535071723719e-02  4.5451818885295231e-02 -1.4609231217681778e-01  8.8324464645884171e-02
                        -1.3072242003495102e-01 -3.4673146282968104e-01
1.195353535353535e+01 -2.3799478167166757e-01 -1.6066413551246550e-02 -2.2816148280767301e-01  3.8820983606304893e-01 -2.0873690816714477e-01  3.7532820045895615e-01 -1.9598063433436499e-01  3.7733671362866128e-01
                        -2.0480052550574837e-01  3.8353791152003236e-01
                        -2.2816148280764267e-01  3.8820983606297232e-01 -1.4642841953484842e-01 -3.7403132256971811e-01 -1.5571549480650562e-01  7.5526550769590570e-02  3.2800670200317336e-02  4.6098578560302951e-02
                         2.8204888793287305e-02  5.1932108923234896e-02
                        -2.0873690816734719e-01  3.7532820045900606e-01 -1.5571549480673280e-01  7.5526550769742365e-02 -1.5685782725595906e-01 -3.5365479854519544e-01  2.3208884677741230e-02  4.5275975057908133e-02
                         3.2571750356336339e-02  4.4672760961990327e-02
                        -1.9598063433457813e-01  3.7733671362892063e-01  3.2800670199804628e-02  4.6098578560685152e-02  2.3208884677641966e-02  4.5275975057800767e-02 -1.4876565725399815e-01 -3.5509932079240164e-01
                        -1.4602932371464541e-01  8.9255257948972253e-02
                        -2.0480052550581360e-01  3.8353791151989552e-01  2.8204888793554476e-02  5.1932108923026604e-02  3.2571750356359480e-02  4.4672760961964139e-02 -1.4602932371509969e-01  8.9255257949459627e-02
                        -1.3318846059061945e-01 -3.4612312165214215e-01
1.195757575757576e+01 -2.3939150773368564e-01 -1.1784670409349721e-02 -2.2407566788393354e-01  3.9043199157382735e-01 -2.0479245503727184e-01  3.7738980434452957e-01 -1.9197054044998860e-01  3.7929487500266124e-01
                        -2.0071552884439048e-01  3.8551719189419609e-01
                        -2.2407566788390537e-01  3.9043199157374275e-01 -1.4920314979822921e-01 -3.7322607125946994e-01 -1.5584025253700273e-01  7.6604462775308663e-02  3.3518784307343945e-02  4.5300884402397337e-02
                         2.8966724135685910e-02  5.1169581341446238e-02
                        -2.0479245503750351e-01  3.7738980434458425e-01 -1.5584025253726660e-01  7.6604462775468396e-02 -1.5939903194816207e-01 -3.5273646334026648e-01  2.3860393299956456e-02  4.4564320221426160e-02
                         3.3261048241924579e-02  4.3884767105091142e-02
                        -1.9197054045024964e-01  3.7929487500293468e-01  3.3518784306739317e-02  4.5300884402808349e-02  2.3860393299865480e-02  4.4564320221309559e-02 -1.5122012085081066e-01 -3.5428455211434573e-01
                        -1.4595724799865190e-01  9.0200673802266942e-02
                        -2.0071552884444813e-01  3.8551719189404787e-01  2.8966724135996647e-02  5.1169581341223132e-02  3.3261048241942058e-02  4.3884767105065114e-02 -1.4595724799920493e-01  9.0200673802795950e-02
                        -1.3564738867600809e-01 -3.4548606050327579e-01
1.196161616161616e+01 -2.4070483863093015e-01 -7.4936846733029347e-03 -2.1997156057626599e-01  3.9261051055117691e-01 -2.0083067483587691e-01  3.7940976147733019e-01 -1.8794325523226338e-01  3.8120961156776867e-01
                        -1.9661407864026101e-01  3.8745172262550881e-01
                        -2.1997156057624093e-01  3.9261051055108503e-01 -1.5196899576391137e-01 -3.7238837077176851e-01 -1.5595418345910217e-01  7.7699396308896898e-02  3.4220665542422618e-02  4.4493977703891283e-02
                         2.9712663023662322e-02  5.0397624212966743e-02
                        -2.0083067483613593e-01  3.7940976147739092e-01 -1.5595418345940049e-01  7.7699396309065707e-02 -1.6192977814667009e-01 -3.5178866312943058e-01  2.4496803395349889e-02  4.3844428729717472e-02
                         3.3934378316695629e-02  4.3088103234126235e-02
                        -1.8794325523257019e-01  3.8120961156805688e-01  3.4220665541731012e-02  4.4493977704334033e-02  2.4496803395267320e-02  4.3844428729591815e-02 -1.5366547043602716e-01 -3.5344153706866166e-01
                        -1.4587574975747003e-01  9.1160677805044138e-02
                        -1.9661407864031127e-01  3.8745172262534994e-01  2.9712663024014038e-02  5.0397624212727657e-02  3.3934378316707287e-02  4.3088103234100991e-02 -1.4587574975811657e-01  9.1160677805617527e-02
                        -1.3809881228821458e-01 -3.4482030002716846e-01
1.196565656565657e+01 -2.4193483862791135e-01 -3.1951288255597961e-03 -2.1584965061863864e-01  3.9474537436650547e-01 -1.9685202062852103e-01  3.8138804781292396e-01 -1.8389927306367071e-01  3.8308087644389816e-01
                        -1.9249669714439030e-01  3.8934147946174602e-01
                        -2.1584965061861741e-01  3.9474537436640678e-01 -1.5472553159581234e-01 -3.7151824413421808e-01 -1.5605693368247503e-01  7.8811306539067996e-02  3.4906258046395931e-02  4.3678128083162154e-02
                         3.0442655389192021e-02  4.9616502527436483e-02
                        -1.9685202062880569e-01  3.8138804781299185e-01 -1.5605693368280557e-01  7.8811306539246812e-02 -1.6444967826855078e-01 -3.5081144769429118e-01  2.5118067608786425e-02  4.3116553689629189e-02
                         3.4591693173001155e-02  4.2283032977317246e-02
                        -1.8389927306402062e-01  3.8308087644420230e-01  3.4906258045623112e-02  4.3678128083639176e-02  2.5118067608712210e-02  4.3116553689494616e-02 -1.5610131954828735e-01 -3.5257031370878678e-01
                        -1.4578449127992810e-01  9.2135230728221038e-02
                        -1.9249669714443346e-01  3.8934147946157682e-01  3.0442655389581876e-02  4.9616502527180445e-02  3.4591693173007011e-02  4.2283032977293349e-02 -1.4578449128066201e-01  9.2135230728841042e-02
                        -1.4054233710814054e-01 -3.4412586571654191e-01
1.196969696969697e+01 -2.4308160473856863e-01  1.1093317478080879e-03 -2.1171042208697624e-01  3.9683657070420719e-01 -1.9285694029149744e-01  3.8332464482103179e-01 -1.7983908384661287e-01  3.8490862903544448e-01
                        -1.8836390158907693e-01  3.9118644501511146e-01
                        -2.1171042208695962e-01  3.9683657070410250e-01 -1.5747232874007619e-01 -3.7061571902269475e-01 -1.5614814671205948e-01  7.9940144101920754e-02  3.5575508957178988e-02  4.2853602937238763e-02
                         3.1156654072277076e-02  4.8826478740771340e-02
                        -1.9285694029180567e-01  3.8332464482110851e-01 -1.5614814671241961e-01  7.9940144102110394e-02 -1.6695834249434191e-01 -3.4980487102866809e-01  2.5724141331401232e-02  4.2380946101151104e-02
                         3.5232948277865217e-02  4.1469817680628962e-02
                        -1.7983908384700301e-01  3.8490862903576495e-01  3.5575508956331242e-02  4.2853602937752082e-02  2.5724141331335212e-02  4.2380946101007878e-02 -1.5852727948195683e-01 -3.5167092481259254e-01
                        -1.4568313245349790e-01  9.3124288412216996e-02
                        -1.8836390158911298e-01  3.9118644501493249e-01  3.1156654072701889e-02  4.8826478740497614e-02  3.5232948277865342e-02  4.1469817680606931e-02 -1.4568313245431230e-01  9.3124288412885323e-02
                        -1.4297756653470142e-01 -3.4340278800453006e-01
1.197373737373737e+01 -2.4414526637861886e-01  5.4180393408493378e-03 -2.0755435330200170e-01  3.9888409331473051e-01 -1.8884587643263104e-01  3.8521953925627173e-01 -1.7576317291624541e-01  3.8669283481209038e-01
                        -1.8421620409020531e-01  3.9298660852888612e-01
                        -2.0755435330199049e-01  3.9888409331462049e-01 -1.6020895593662268e-01 -3.6968082786324269e-01 -1.5622746346682159e-01  8.1085854994855044e-02  3.6228368279434042e-02  4.2020667452745658e-02
                         3.1854614680487336e-02  4.8027812788187206e-02
                        -1.8884587643296055e-01  3.8521953925635805e-01 -1.5622746346720845e-01  8.1085854995055995e-02 -1.6945537877405836e-01 -3.4876899143334883e-01  2.6314982579605350e-02  4.1637854872224073e-02
                         3.5858101845339815e-02  4.0648716421283156e-02
                        -1.7576317291667243e-01  3.8669283481242744e-01  3.6228368278518379e-02  4.2020667453296828e-02  2.6314982579547161e-02  4.1637854872072465e-02 -1.6094295931330399e-01 -3.5074341797724717e-01
                        -1.4557133080525059e-01  9.4127801665361735e-02
                        -1.8421620409023481e-01  3.9298660852869816e-01  3.1854614680943749e-02  4.8027812787895273e-02  3.5858101845334445e-02  4.0648716421263574e-02 -1.4557133080613804e-01  9.4127801666079508e-02
                        -1.4540410172070903e-01 -3.4265110235728269e-01
1.197777777777778e+01 -2.4512598501066826e-01  9.7293444979435519e-03 -2.0338191674067790e-01  4.0088794176685322e-01 -1.8481926632002502e-01  3.8707272292846523e-01 -1.7167202096148626e-01  3.8843346508936344e-01
                        -1.8005411155820544e-01  3.9474196564369934e-01
                        -2.0338191674067269e-01  4.0088794176673859e-01 -1.6293497923238720e-01 -3.6871360793554070e-01 -1.5629452230054486e-01  8.2248380469962343e-02  3.6864788756088424e-02  4.1179584621452728e-02
                         3.2536495450400708e-02  4.7220762102100133e-02
                        -1.8481926632037340e-01  3.8707272292856187e-01 -1.5629452230095534e-01  8.2248380470175020e-02 -1.7194039283489942e-01 -3.4770387161263144e-01  2.6890551875972987e-02  4.0887526837828536e-02
                         3.6467114710769959e-02  3.9819986025705079e-02
                        -1.7167202096194667e-01  3.8843346508971743e-01  3.6864788755112281e-02  4.1179584622042777e-02  2.6890551875922212e-02  4.0887526837668969e-02 -1.6334796592852208e-01 -3.4978784571537458e-01
                        -1.4544874154493254e-01  9.5145716162388261e-02
                        -1.8005411155822856e-01  3.9474196564350272e-01  3.2536495450885126e-02  4.7220762101789736e-02  3.6467114710759349e-02  3.9819986025688328e-02 -1.4544874154588505e-01  9.5145716163156077e-02
                        -1.4782154161046762e-01 -3.4187084936741735e-01
1.198181818181818e+01 -2.4602395378249306e-01  1.4041606570685320e-02 -1.9919357895605405e-01  4.0284812119947899e-01 -1.8077754181855690e-01  3.8888419247279282e-01 -1.6756610395399280e-01  3.9013049680924072e-01
                        -1.7587812561743421e-01  3.9645251816373561e-01
                        -1.9919357895605533e-01  4.0284812119936075e-01 -1.6564996199639040e-01 -3.6771410147792594e-01 -1.5634895902462004e-01  8.3427656926903362e-02  3.7484725741831301e-02  4.0330615260345523e-02
                         3.3202257111085737e-02  4.6405581634815896e-02
                        -1.8077754181892167e-01  3.8888419247290062e-01 -1.5634895902505105e-01  8.3427656927127919e-02 -1.7441298819080464e-01 -3.4660957877264187e-01  2.7450812132139603e-02  4.0130206783273600e-02
                         3.7059950207096543e-02  3.8983881091815539e-02
                        -1.6756610395448282e-01  3.9013049680961132e-01  3.7484725740802513e-02  4.0330615260974888e-02  2.7450812132095607e-02  4.0130206783106456e-02 -1.6574190405373554e-01 -3.4880426555248778e-01
                        -1.4531501761012147e-01  9.6177972343026608e-02
                        -1.7587812561745164e-01  3.9645251816353133e-01  3.3202257111594406e-02  4.6405581634486985e-02  3.7059950207081117e-02  3.8983881091802002e-02 -1.4531501761113053e-01  9.6177972343844370e-02
                        -1.5022948297920660e-01 -3.4106207484830658e-01
1.198585858585859e+01 -2.4683939715885986e-01  1.8353194261553376e-02 -1.9498980050540254e-01  4.0476464207319329e-01 -1.7672112933401188e-01  3.9065394912001505e-01 -1.6344589308497667e-01  3.9178391232104581e-01
                        -1.7168874253385250e-01  3.9811827382314480e-01
                        -1.9498980050541090e-01  4.0476464207307200e-01 -1.6835346493671297e-01 -3.6668235579398312e-01 -1.5639040693280748e-01  8.4623615805253016e-02  3.8088137078705848e-02  3.9474018036146793e-02
                         3.3851862749749974e-02  4.5582523885937802e-02
                        -1.7672112933439030e-01  3.9065394912013429e-01 -1.5639040693325557e-01  8.4623615805489508e-02 -1.7687276615394651e-01 -3.4548618472142545e-01  2.7995728533820735e-02  3.9366137471619017e-02
                         3.7636574043307974e-02  3.8140654015598678e-02
                        -1.6344589308549223e-01  3.9178391232143300e-01  3.8088137077632596e-02  3.9474018036815432e-02  2.7995728533782866e-02  3.9366137471444865e-02 -1.6812437628707666e-01 -3.4779274012568456e-01
                        -1.4516980971342769e-01  9.7224505310686757e-02
                        -1.7168874253386460e-01  3.9811827382293341e-01  3.3851862750278988e-02  4.5582523885590559e-02  3.7636574043288171e-02  3.8140654015588700e-02 -1.4516980971448440e-01  9.7224505311553744e-02
                        -1.5262752047441722e-01 -3.4022482992920028e-01
1.198989898989899e+01 -2.4757257054722928e-01  2.2662486154499173e-02 -1.9077103588650871e-01  4.0663751992181768e-01 -1.7265044976471189e-01  3.9238199846696820e-01 -1.5931185470970138e-01  3.9339369916287198e-01
                        -1.6748645315083657e-01  3.9973924605289685e-01
                        -1.9077103588652450e-01  4.0663751992169445e-01 -1.7104504611946544e-01 -3.6561842336068834e-01 -1.5641849682794462e-01  8.5836183476295069e-02  3.8674982973914619e-02  3.8610049494214982e-02
                         3.4485277679677948e-02  4.4751838934414825e-02
                        -1.7265044976510124e-01  3.9238199846709931e-01 -1.5641849682840647e-01  8.5836183476543204e-02 -1.7931932584826135e-01 -3.4433376597079507e-01  2.8525268428063848e-02  3.8595559675159222e-02
                         3.8196954185150706e-02  3.7290555021868496e-02
                        -1.5931185471023840e-01  3.9339369916327499e-01  3.8674982972805340e-02  3.8610049494922319e-02  2.8525268428031322e-02  3.8595559674978637e-02 -1.7049498313292621e-01 -3.4675333728358626e-01
                        -1.4501276639170663e-01  9.8285244731219884e-02
                        -1.6748645315084396e-01  3.9973924605267913e-01  3.4485277680223345e-02  4.4751838934049715e-02  3.8196954185127044e-02  3.7290555021862341e-02 -1.4501276639280192e-01  9.8285244732134847e-02
                        -1.5501524665917277e-01 -3.3935917115116843e-01
1.199393939393939e+01 -2.4822375991767007e-01  2.6967871232603274e-02 -1.8653773348195224e-01  4.0846677510418761e-01 -1.6856591846048630e-01  3.9406835024753839e-01 -1.5516445029949033e-01  3.9495984984375304e-01
                        -1.6327174283294724e-01  4.0131545374832656e-01
                        -1.8653773348197583e-01  4.0846677510406321e-01 -1.7372426098984797e-01 -3.6452236193809412e-01 -1.5643285705057583e-01  8.7065281134247066e-02  3.9245225879952834e-02  3.7738964091739498e-02
                         3.5102469310580975e-02  4.3913774475148125e-02
                        -1.6856591846088370e-01  3.9406835024768128e-01 -1.5643285705104801e-01  8.7065281134506442e-02 -1.8175226422512397e-01 -3.4315240383991363e-01  2.9039401212842507e-02  3.7818712210891468e-02
                         3.8741060738207975e-02  3.6433832199153193e-02
                        -1.5516445030004458e-01  3.9495984984417087e-01  3.9245225878816098e-02  3.7738964092484339e-02  2.9039401212814515e-02  3.7818712210705152e-02 -1.7285332303841947e-01 -3.4568613018748418e-01
                        -1.4484353405725009e-01  9.9360114731746829e-02
                        -1.6327174283295037e-01  4.0131545374810323e-01  3.5102469311138765e-02  4.3913774474765820e-02  3.8741060738181010e-02  3.6433832199151021e-02 -1.4484353405837463e-01  9.9360114732707824e-02
                        -1.5739225205751689e-01 -3.3846516056384335e-01
1.199797979797980e+01 -2.4879328141729704e-01  3.1267749382948837e-02 -1.8229033551121948e-01  4.1025243255635913e-01 -1.6446794518882243e-01  3.9571301810429660e-01 -1.5100413640106547e-01  3.9648236162679079e-01
                        -1.5904509141747405e-01  4.0284692103758757e-01
                        -1.8229033551125107e-01  4.1025243255623461e-01 -1.7639066239539358e-01 -3.6339423468052934e-01 -1.5643311350948225e-01  8.8310824686893372e-02  3.9798830377183299e-02  3.6861014235151479e-02
                         3.5703407021478312e-02  4.3068575860071137e-02
                        -1.6446794518922520e-01  3.9571301810445114e-01 -1.5643311350996117e-01  8.8310824687163378e-02 -1.8417117608127012e-01 -3.4194218456057790e-01  2.9538098229101365e-02  3.7035831979890327e-02
                         3.9268865833452973e-02  3.5570731538615140e-02
                        -1.5100413640163263e-01  3.9648236162722261e-01  3.9798830376027751e-02  3.6861014235932139e-02  2.9538098229076989e-02  3.7035831979699008e-02 -1.7519899243231610e-01 -3.4459119741365718e-01
                        -1.4466175705092657e-01  1.0044903379953708e-01
                        -1.5904509141747378e-01  4.0284692103735975e-01  3.5703407022044456e-02  4.3068575859672546e-02  3.9268865833423344e-02  3.5570731538617055e-02 -1.4466175705207093e-01  1.0044903380054156e-01
                        -1.5975812520200416e-01 -3.3754286582293203e-01
1.200202020202020e+01 -2.4928148097951189e-01  3.5560531888838662e-02 -1.7802927799050072e-01  4.1199452154443006e-01 -1.6035693410805563e-01  3.9731601936095290e-01 -1.4683136460305776e-01  3.9796123631341740e-01
                        -1.5480697317359007e-01  4.0433367705120971e-01
                        -1.7802927799054047e-01  4.1199452154430605e-01 -1.7904380061147324e-01 -3.6223411024929220e-01 -1.5641888971409246e-01  8.9572724645591559e-02  4.0335763058958508e-02  3.5976450321671356e-02
                         3.6288062036222077e-02  4.2216486143621404e-02
                        -1.6035693410846091e-01  3.9731601936111882e-01 -1.5641888971457477e-01  8.9572724645871404e-02 -1.8657565407905588e-01 -3.4070319938417282e-01  3.0021332655352687e-02  3.6247154010511554e-02
                         3.9780343515375995e-02  3.4701496976926600e-02
                        -1.4683136460363350e-01  3.9796123631386204e-01  4.0335763057792677e-02  3.5976450322485642e-02  3.0021332655330982e-02  3.6247154010316071e-02 -1.7753158576631722e-01 -3.4346862305681736e-01
                        -1.4446707769724482e-01  1.0155191468091346e-01
                        -1.5480697317358694e-01  4.0433367705097800e-01  3.6288062036792579e-02  4.2216486143207665e-02  3.9780343515344291e-02  3.4701496976932603e-02 -1.4446707769839978e-01  1.0155191468195832e-01
                        -1.6211245268346225e-01 -3.3659236028846823e-01
1.200606060606061e+01 -2.4968873392831362e-01  3.9844641909452042e-02 -1.7375499070005129e-01  4.1369307541812705e-01 -1.5623328374747886e-01  3.9887737479576801e-01 -1.4264658150955026e-01  3.9939648002895040e-01
                        -1.5055785676897285e-01  4.0577575569293384e-01
                        -1.7375499070009925e-01  4.1369307541800449e-01 -1.8168322336912285e-01 -3.6104206292681396e-01 -1.5638980680875908e-01  9.0850886014608195e-02  4.0855992419390745e-02  3.5085520784918965e-02
                         3.6856407301772337e-02  4.1357746132526185e-02
                        -1.5623328374788398e-01  3.9887737479594498e-01 -1.5638980680924136e-01  9.0850886014896881e-02 -1.8896528876912622e-01 -3.3943554469026666e-01  3.0489079404922396e-02  3.5452911505352763e-02
                         4.0275469632779851e-02  3.3826370443026006e-02
                        -1.4264658151013027e-01  3.9939648002940631e-01  4.0855992418223165e-02  3.5085520785764185e-02  3.0489079404902451e-02  3.5452911505154040e-02 -1.7985069555889749e-01 -3.4231849683464788e-01
                        -1.4425913636131829e-01  1.0266866428014716e-01
                        -1.5055785676896755e-01  4.0577575569269930e-01  3.6856407302343214e-02  4.1357746132098624e-02  4.0275469632746808e-02  3.3826370443036102e-02 -1.4425913636247459e-01  1.0266866428122877e-01
                        -1.6445481920302968e-01 -3.3561372312377513e-01
1.201010101010101e+01 -2.5001544457793945e-01  4.4118514947125168e-02 -1.6946789715890481e-01  4.1534813136534343e-01 -1.5209738699416944e-01  4.0039710841607479e-01 -1.3845022872042928e-01  4.0078810300961620e-01
                        -1.4629820524366149e-01  4.0717319541201269e-01
                        -1.6946789715896096e-01  4.1534813136522331e-01 -1.8430847588530552e-01 -3.5981817273224270e-01 -1.5634548360888884e-01  9.2145208179759297e-02  4.1359488743880991e-02  3.4188472144491486e-02
                         3.7408417369339239e-02  4.0492594439803797e-02
                        -1.5209738699457168e-01  4.0039710841626214e-01 -1.5634548360936776e-01  9.2145208180055727e-02 -1.9133966861561336e-01 -3.3813932209678632e-01  3.0941315025950246e-02  3.4653335891879411e-02
                         4.0754221732347787e-02  3.2945591908660143e-02
                        -1.3845022872100937e-01  4.0078810301008166e-01  4.1359488742719927e-02  3.4188472145364496e-02  3.0941315025931084e-02  3.4653335891678350e-02 -1.8215591244176577e-01 -3.4114091419336134e-01
                        -1.4403757150770927e-01  1.0379918355832571e-01
                        -1.4629820524365472e-01  4.0717319541177599e-01  3.7408417369906695e-02  4.0492594439363906e-02  4.0754221732314008e-02  3.2945591908674195e-02 -1.4403757150885793e-01  1.0379918355943990e-01
                        -1.6678480762657014e-01 -3.3460703939508307e-01
1.201414141414141e+01 -2.5026204582806433e-01  4.8380599302301798e-02 -1.6516841460685777e-01  4.1695973016773241e-01 -1.4794963108645298e-01  4.0187524723400470e-01 -1.3424274281844362e-01  4.0213611939115435e-01
                        -1.4202847599104435e-01  4.0852603897710349e-01
                        -1.6516841460692200e-01  4.1695973016761539e-01 -1.8691910089563946e-01 -3.5856252553843082e-01 -1.5628553663891787e-01  9.3455584796291222e-02  4.1846224002495901e-02  3.3285549059441824e-02
                         3.7944068278487543e-02  3.9621267542908907e-02
                        -1.4794963108684983e-01  4.0187524723420170e-01 -1.5628553663939032e-01  9.3455584796594104e-02 -1.9369838002390888e-01 -3.3681463857174815e-01  3.1378017604232041e-02  3.3848656876648578e-02
                         4.1216578955066530e-02  3.2059399442643674e-02
                        -1.3424274281901960e-01  4.0213611939162758e-01  4.1846224001349380e-02  3.3285549060339134e-02  3.1378017604212723e-02  3.3848656876446198e-02 -1.8444682520899403e-01 -3.3993597641424478e-01
                        -1.4380201976113979e-01  1.0494336743214085e-01
                        -1.4202847599103677e-01  4.0852603897686568e-01  3.7944068279047893e-02  3.9621267542458420e-02  4.1216578955032723e-02  3.2059399442661507e-02 -1.4380201976227211e-01  1.0494336743328303e-01
                        -1.6910199904149031e-01 -3.3357240017177303e-01
1.201818181818182e+01 -2.5042899875478830e-01  5.2629356516283504e-02 -1.6085695399355882e-01  4.1852791595749528e-01 -1.4379039761384593e-01  4.0331182104353236e-01 -1.3002455536278959e-01  4.0344054699913723e-01
                        -1.3774912074578813e-01  4.0983433325190211e-01
                        -1.6085695399363084e-01  4.1852791595738204e-01 -1.8951463868967408e-01 -3.5727521319027788e-01 -1.5620958017213132e-01  9.4781903675956888e-02  4.2316171746294713e-02  3.2376994385569749e-02
                         3.8463337444310103e-02  3.8743999845930431e-02
                        -1.4379039761423479e-01  4.0331182104373781e-01 -1.5620958017259418e-01  9.4781903676264850e-02 -1.9604100737110108e-01 -3.3546160654648666e-01  3.1799166669000810e-02  3.3039102503044752e-02
                         4.1662521935600452e-02  3.1168029268748357e-02
                        -1.3002455536335752e-01  4.0344054699961640e-01  4.2316171745170418e-02  3.2376994386487418e-02  3.1799166668980465e-02  3.3039102502842137e-02 -1.8672302086889911e-01 -3.3870379072112244e-01
                        -1.4355211596905848e-01  1.0610110467256138e-01
                        -1.3774912074578044e-01  4.0983433325166441e-01  3.8463337444859774e-02  3.8743999845471215e-02  4.1662521935567284e-02  3.1168029268769708e-02 -1.4355211597016615e-01  1.0610110467372659e-01
                        -1.7140597281603434e-01 -3.3250990262719371e-01
1.202222222222222e+01 -2.5051679219762446e-01  5.6863261801876119e-02 -1.5653391997456184e-01  4.2005273597547271e-01 -1.3962006252334253e-01  4.0470686219893048e-01 -1.2579609288906479e-01  4.0470140714111619e-01
                        -1.3346058557854509e-01  4.1109812897264064e-01
                        -1.5653391997464139e-01  4.2005273597536408e-01 -1.9209462714877804e-01 -3.5595633362438900e-01 -1.5611722627232605e-01  9.6124046673233501e-02  4.2769307006699932e-02  3.1463049236443719e-02
                         3.8966203547770070e-02  3.7861023745755507e-02
                        -1.3962006252372117e-01  4.0470686219914365e-01 -1.5611722627277649e-01  9.6124046673545085e-02 -1.9836713303915099e-01 -3.3408034403033249e-01  3.2204743101738612e-02  3.2224899212446666e-02
                         4.2092032704703811e-02  3.0271715827139820e-02
                        -1.2579609288962082e-01  4.0470140714159908e-01  4.2769307005605064e-02  3.1463049237377548e-02  3.2204743101716379e-02  3.2224899212244820e-02 -1.8898408469874517e-01 -3.3744447038867770e-01
                        -1.4328749326605728e-01  1.0727227780334686e-01
                        -1.3346058557853796e-01  4.1109812897240378e-01  3.8966203548305683e-02  3.7861023745289511e-02  4.2092032704671808e-02  3.0271715827164390e-02 -1.4328749326713253e-01  1.0727227780452973e-01
                        -1.7369630666111102e-01 -3.3141965013999936e-01
1.202626262626263e+01 -2.5052594234269099e-01  6.1080804462001786e-02 -1.5219971091422904e-01  4.2153424033063558e-01 -1.3543899613193791e-01  4.0606040539471366e-01 -1.2155777691545697e-01  4.0591872440068671e-01
                        -1.2916331089729741e-01  4.1231748052755646e-01
                        -1.5219971091431572e-01  4.2153424033053200e-01 -1.9465860178669009e-01 -3.5460599099001300e-01 -1.5600808483732787e-01  9.7481889570616542e-02  4.3205606198004128e-02  3.0543953048074918e-02
                         3.9452646429308701e-02  3.6972569702116431e-02
                        -1.3543899613230417e-01  4.0606040539493310e-01 -1.5600808483776327e-01  9.7481889570930194e-02 -2.0067633745086902e-01 -3.3267097472669083e-01  3.2594729048107458e-02  3.1406271908745842e-02
                         4.2505094594756904e-02  2.9370691839283133e-02
                        -1.2155777691599762e-01  4.0591872440117127e-01  4.3205606196945523e-02  3.0543953049020498e-02  3.2594729048082527e-02  3.1406271908545939e-02 -1.9122960030232139e-01 -3.3615813485157331e-01
                        -1.4300778314013932e-01  1.0845676299934924e-01
                        -1.2916331089729138e-01  4.1231748052732153e-01  3.9452646429827182e-02  3.6972569701645711e-02  4.2505094594726733e-02  2.9370691839310587e-02 -1.4300778314117485e-01  1.0845676300054416e-01
                        -1.7597257669469760e-01 -3.3030175239596266e-01
1.203030303030303e+01 -2.5045699230230745e-01  6.5280488296311681e-02 -1.4785471889539714e-01  4.2297248176104785e-01 -1.3124756314530728e-01  4.0737248744712684e-01 -1.1731002395506397e-01  4.0709252643355465e-01
                        -1.2485773145522809e-01  4.1349244573842403e-01
                        -1.4785471889549048e-01  4.2297248176095009e-01 -1.9720609579276449e-01 -3.5322429577122855e-01 -1.5588176364437567e-01  9.8855301962914241e-02  4.3625047023100723e-02  2.9619943647169661e-02
                         3.9922646985811189e-02  3.6078866311442283e-02
                        -1.3124756314565911e-01  4.0737248744735166e-01 -1.5588176364479359e-01  9.8855301963228309e-02 -2.0296819910873481e-01 -3.3123362815048096e-01  3.2969107833085022e-02  3.0583444026143384e-02
                         4.2901692148508405e-02  2.8465188376243275e-02
                        -1.1731002395558586e-01  4.0709252643403848e-01  4.3625047022084466e-02  2.9619943648122260e-02  3.2969107833056711e-02  3.0583444025946510e-02 -1.9345914967043223e-01 -3.3484490981431747e-01
                        -1.4271261550084582e-01  1.0965442998454042e-01
                        -1.2485773145522383e-01  4.1349244573819155e-01  3.9922646986309651e-02  3.6078866310969022e-02  4.2901692148480559e-02  2.8465188376273202e-02 -1.4271261550183495e-01  1.0965442998574154e-01
                        -1.7823435750884681e-01 -3.2915632549021762e-01
1.203434343434343e+01 -2.5031051169118301e-01  6.9460831995917169e-02 -1.4349932973563748e-01  4.2436751539640377e-01 -1.2704612268248031e-01  4.0864314707726312e-01 -1.1305324553415567e-01  4.0822284376569529e-01
                        -1.2054427636492103e-01  4.1462308564425499e-01
                        -1.4349932973573687e-01  4.2436751539631223e-01 -1.9973664007799621e-01 -3.5181136491032239e-01 -1.5573786839739395e-01  1.0024414714049035e-01  4.4027608382534840e-02  2.8691257322867258e-02
                         4.0376187071031702e-02  3.5180140384418274e-02
                        -1.2704612268281601e-01  4.0864314707749183e-01 -1.5573786839779216e-01  1.0024414714080329e-01 -2.0524229463665450e-01 -3.2976843974686787e-01  3.3327863879398324e-02  2.9756637600132141e-02
                         4.3281811031112741e-02  2.7555434930288447e-02
                        -1.1305324553465576e-01  4.0822284376617624e-01  4.4027608381566601e-02  2.8691257323822175e-02  3.3327863879365961e-02  2.9756637599939385e-02 -1.9567231324438425e-01 -3.3350492736179593e-01
                        -1.4240161874925231e-01  1.1086514192972433e-01
                        -1.2054427636491905e-01  4.1462308564402650e-01  4.0376187071507530e-02  3.5180140383944639e-02  4.3281811031087719e-02  2.7555434930320380e-02 -1.4240161875018906e-01  1.1086514193092578e-01
                        -1.8048122223937163e-01 -3.2798349202986660e-01
1.203838383838384e+01 -2.5008709619939495e-01  7.3620369526198423e-02 -1.3913392301009544e-01  4.2571939852217638e-01 -1.2283502830650181e-01  4.0987242469583463e-01 -1.0878784821634294e-01  4.0930970959365454e-01
                        -1.1622336911884806e-01  4.1570946428722899e-01
                        -1.3913392301020033e-01  4.2571939852209167e-01 -2.0224976332382016e-01 -3.5036732193234815e-01 -1.5557600277618328e-01  1.0164828197135600e-01  4.4413270286956394e-02  2.7758128901902407e-02
                         4.0813249399562504e-02  3.4276617027185624e-02
                        -1.2283502830681986e-01  4.0987242469606577e-01 -1.5557600277655992e-01  1.0164828197166612e-01 -2.0749819882466089e-01 -3.2827555101126332e-01  3.3670982629333907e-02  2.8926073341600154e-02
                         4.3645437945538719e-02  2.6641659489734286e-02
                        -1.0878784821681846e-01  4.0930970959413054e-01  4.4413270286041133e-02  2.7758128902854784e-02  3.3670982629296978e-02  2.8926073341412624e-02 -1.9786866998247102e-01 -3.3213832607043198e-01
                        -1.4207441984985850e-01  1.1208875534985113e-01
                        -1.1622336911884881e-01  4.1570946428700517e-01  4.0813249400013372e-02  3.4276617026713842e-02  4.3645437945516938e-02  2.6641659489767773e-02 -1.4207441985073754e-01  1.1208875535104687e-01
                        -1.8271274263819809e-01 -3.2678338123692063e-01
1.204242424242424e+01 -2.4978736716233765e-01  7.7757650497782493e-02 -1.3475887208076157e-01  4.2702819034546236e-01 -1.1861462806094020e-01  4.1106036218966407e-01 -1.0451423363248562e-01  4.1035315958706975e-01
                        -1.1189542761596663e-01  4.1675164850093932e-01
                        -1.3475887208087126e-01  4.2702819034538481e-01 -2.0474499203376079e-01 -3.4889229707081332e-01 -1.5539576848756542e-01  1.0306755678204894e-01  4.4782013773068986e-02  2.6820791827099996e-02
                         4.1233817454445924e-02  3.3368519726086690e-02
                        -1.1861462806123915e-01  4.1106036218989639e-01 -1.5539576848791889e-01  1.0306755678235469e-01 -2.0973548467664233e-01 -3.2675510961053122e-01  3.3998450470016407e-02  2.8091970713963965e-02
                         4.3992560551436730e-02  2.5724088616938673e-02
                        -1.0451423363293409e-01  4.1035315958753843e-01  4.4782013772210992e-02  2.6820791828045046e-02  3.3998450469974469e-02  2.8091970713782687e-02 -2.0004779742952944e-01 -3.3074525111989611e-01
                        -1.4173064440439645e-01  1.1332512000088521e-01
                        -1.1189542761597066e-01  4.1675164850072111e-01  4.1233817454869814e-02  3.3368519725618974e-02  4.3992560551418550e-02  2.5724088616973229e-02 -1.4173064440521332e-01  1.1332512000206926e-01
                        -1.8492848914845181e-01 -3.2555612905150955e-01
1.204646464646465e+01 -2.4941197112784022e-01  8.1871240525675418e-02 -1.3037454413213181e-01  4.2829395176256813e-01 -1.1438526451220693e-01  4.1220700270993083e-01 -1.0023279851627387e-01  4.1135323169346066e-01
                        -1.0756086419435401e-01  4.1774970770102093e-01
                        -1.3037454413224550e-01  4.2829395176249785e-01 -2.0722185058795001e-01 -3.4738642739447306e-01 -1.5519676531852833e-01  1.0450181523720976e-01  4.5133820823161662e-02  2.5879478239131868e-02
                         4.1637875398518959e-02  3.2456070435878913e-02
                        -1.1438526451248578e-01  4.1220700271016286e-01 -1.5519676531885712e-01  1.0450181523750958e-01 -2.1195372346112862e-01 -3.2520726950536238e-01  3.4310254662238485e-02  2.7254548013257426e-02
                         4.4323167387544826e-02  2.4802947529376101e-02
                        -1.0023279851669324e-01  4.1135323169391980e-01  4.5133820822364536e-02  2.5879478240064840e-02  3.4310254662191203e-02  2.7254548013083413e-02 -2.0220927178958931e-01 -3.2932585440531648e-01
                        -1.4136991672759522e-01  1.1457407877615280e-01
                        -1.0756086419436163e-01  4.1774970770080921e-01  4.1637875398914184e-02  3.2456070435417393e-02  4.4323167387530463e-02  2.4802947529411222e-02 -1.4136991672834609e-01  1.1457407877731933e-01
                        -1.8712803098228908e-01 -3.2430187823532131e-01
1.205050505050505e+01 -2.4896157942064542e-01  8.5959721576525386e-02 -1.2598130021322604e-01  4.2951674512838023e-01 -1.1014727479766481e-01  4.1331239046219964e-01 -9.5943934745429685e-02  4.1230996594533575e-01
                        -1.0322008566981604e-01  4.1870371367821207e-01
                        -1.2598130021334286e-01  4.2951674512831750e-01 -2.0967986130053010e-01 -3.4584985693521564e-01 -1.5497859119142743e-01  1.0595089421775761e-01  4.5468674288309301e-02  2.4934419061464843e-02
                         4.2025407989579155e-02  3.1539489671342139e-02
                        -1.1014727479792268e-01  4.1331239046243018e-01 -1.5497859119173063e-01  1.0595089421805005e-01 -2.1415248476516158e-01 -3.2363219107378999e-01  3.4606383272925437e-02  2.6414022451102939e-02
                         4.4637247797713421e-02  2.3878460183721823e-02
                        -9.5943934745818152e-02  4.1230996594578340e-01  4.5468674287575894e-02  2.4934419062381176e-02  3.4606383272872666e-02  2.6414022450937116e-02 -2.0435266800163324e-01 -3.2788029464994428e-01
                        -1.4099185992494831e-01  1.1583546760209096e-01
                        -1.0322008566982763e-01  4.1870371367800763e-01  4.2025407989944329e-02  3.1539489670888918e-02  4.4637247797703131e-02  2.3878460183756979e-02 -1.4099185992563029e-01  1.1583546760323432e-01
                        -1.8931093620148193e-01 -3.2302077847523492e-01
1.205454545454545e+01 -2.4843688770444702e-01  9.0021692304065620e-02 -1.2157949528585697e-01  4.3069663402758951e-01 -1.0590099067942413e-01  4.1437657049828763e-01 -9.1648029388395572e-02  4.1322340426968029e-01
                        -9.8873493380329344e-02  4.1961374039392774e-01
                        -1.2157949528597613e-01  4.3069663402753428e-01 -2.1211854448000739e-01 -3.4428273681699806e-01 -1.5474084222130724e-01  1.0741462369759747e-01  4.5786557815336866e-02  2.3985844088411007e-02
                         4.2396400499470410e-02  3.0618996602185963e-02
                        -1.0590099067966040e-01  4.1437657049851528e-01 -1.5474084222158396e-01  1.0741462369788125e-01 -2.1633133655132400e-01 -3.2203004123578816e-01  3.4886825111325896e-02  2.5570610240473753e-02
                         4.4934791860637271e-02  2.2950849362857410e-02
                        -9.1648029388751717e-02  4.1322340427011467e-01  4.5786557814669317e-02  2.3985844089306360e-02  3.4886825111267492e-02  2.5570610240316951e-02 -2.0647755981852919e-01 -3.2640873751820321e-01
                        -1.4059609597253439e-01  1.1710911533334437e-01
                        -9.8873493380345234e-02  4.1961374039373156e-01  4.2396400499804421e-02  3.0618996601743005e-02  4.4934791860631131e-02  2.2950849362892160e-02 -1.4059609597314543e-01  1.1710911533445918e-01
                        -1.9147677180080935e-01 -3.2171298648708896e-01
1.205858585858586e+01 -2.4783861554169759e-01  9.4055768372642790e-02 -1.1716947827919656e-01  4.3183368304779401e-01 -1.0164673860388071e-01  4.1539958850998437e-01 -8.7345464756531918e-02  4.1409359029985693e-01
                        -9.4521483236328419e-02  4.2047986377838664e-01
                        -1.1716947827931712e-01  4.3183368304774633e-01 -2.1453741849254024e-01 -3.4268522538584251e-01 -1.5448311277542076e-01  1.0889282661874022e-01  4.6087455777631577e-02  2.3033982076221992e-02
                         4.2750838637174562e-02  2.9694809151193075e-02
                        -1.0164673860409502e-01  4.1539958851020820e-01 -1.5448311277567056e-01  1.0889282661901414e-01 -2.1848984521792272e-01 -3.2040099357895063e-01  3.5151569669008974e-02  2.4724526684183578e-02
                         4.5215790323372237e-02  2.2020336765740084e-02
                        -8.7345464756854757e-02  4.1409359030027620e-01  4.6087455777031237e-02  2.3033982077092303e-02  3.5151569668945004e-02  2.4724526684036574e-02 -2.0858351988912122e-01 -3.2491135572909996e-01
                        -1.4018224579896074e-01  1.1839484364711410e-01
                        -9.4521483236348736e-02  4.2047986377819935e-01  4.2750838637476724e-02  2.9694809150762228e-02  4.5215790323370253e-02  2.2020336765773911e-02 -1.4018224579949951e-01  1.1839484364819533e-01
                        -1.9362510379423256e-01 -3.2037866611957189e-01
1.206262626262626e+01 -2.4716750595140188e-01  9.8060582768858234e-02 -1.1275159215055942e-01  4.3292795755454760e-01 -9.7384839766923248e-02  4.1638149062468055e-01 -8.3036618461715991e-02  4.1492056918998299e-01
                        -9.0164445776721447e-02  4.2130216153136479e-01
                        -1.1275159215068056e-01  4.3292795755450753e-01 -2.1693599982822481e-01 -3.4105748834086569e-01 -1.5420499553503267e-01  1.1038531876476194e-01  4.6371353209899845e-02  2.2079060837138953e-02
                         4.3088708476008486e-02  2.8767144095506413e-02
                        -9.7384839767115469e-02  4.1638149062489910e-01 -1.5420499553525538e-01  1.1038531876502500e-01 -2.2062757566239632e-01 -3.1874522848520154e-01  3.5400607063761080e-02  2.3875986266012939e-02
                         4.5480234538727286e-02  2.1087143100048389e-02
                        -8.3036618462004774e-02  4.1492056919038567e-01  4.6371353209367361e-02  2.2079060837980554e-02  3.5400607063691691e-02  2.3875986265876368e-02 -2.1067011984353498e-01 -3.2338832916993548e-01
                        -1.3974992936949920e-01  1.1969246693670244e-01
                        -9.0164445776746358e-02  4.2130216153118683e-01  4.3088708476278388e-02  2.8767144095089358e-02  4.5480234538729430e-02  2.1087143100080849e-02 -1.3974992936996522e-01  1.1969246693774549e-01
                        -1.9575549730390138e-01 -3.1901798845818385e-01
1.206666666666667e+01 -2.4642432496512032e-01  1.0203478610125477e-01 -1.0832617395242791e-01  4.3397952346839885e-01 -9.3115610184841296e-02  4.1732232320293483e-01 -7.8721863479338322e-02  4.1570438743183108e-01
                        -8.5802766230620886e-02  4.2208071292563076e-01
                        -1.0832617395254862e-01  4.3397952346836582e-01 -2.1931380317038843e-01 -3.3939969886634674e-01 -1.5390608155960561e-01  1.1189190863249854e-01  4.6638235746960285e-02  2.1121307336329845e-02
                         4.3409996385019058e-02  2.7836217170986270e-02
                        -9.3115610185011605e-02  4.1732232320314716e-01 -1.5390608155980129e-01  1.1189190863274986e-01 -2.2274409134796813e-01 -3.1706293325852841e-01  3.5633927987468561e-02  2.3025202744397677e-02
                         4.5728116406616476e-02  2.0151488177536665e-02
                        -7.8721863479592730e-02  4.1570438743221594e-01  4.6638235746495581e-02  2.1121307337139458e-02  3.5633927987394030e-02  2.3025202744272041e-02 -2.1273693038170571e-01 -3.2183984501028484e-01
                        -1.3929876577250153e-01  1.2100179220417133e-01
                        -8.5802766230650432e-02  4.2208071292546279e-01  4.3409996385256625e-02  2.7836217170584519e-02  4.5728116406622589e-02  2.0151488177567352e-02 -1.3929876577289518e-01  1.2100179220517214e-01
                        -1.9786751665199168e-01 -3.1763113192925041e-01
1.207070707070707e+01 -2.4560986118143122e-01  1.0597704688799238e-01 -1.0389355490573746e-01  4.3498844704397477e-01 -8.8839360770959747e-02  4.1822213263802832e-01 -7.4401568216685601e-02  4.1644509267430696e-01
                        -8.1436824584768003e-02  4.2281559861312806e-01
                        -1.0389355490585685e-01  4.3498844704394846e-01 -2.2167034146791575e-01 -3.3771203776484215e-01 -1.5358596035348260e-01  1.1341239730187538e-01  4.6888089566668643e-02  2.0160947791641480e-02
                         4.3714688964673558e-02  2.6902243179560754e-02
                        -8.8839360771108392e-02  4.1822213263823360e-01 -1.5358596035365163e-01  1.1341239730211439e-01 -2.2483895437357793e-01 -3.1535430225372646e-01  3.5851523658077450e-02  2.2172389248602192e-02
                         4.5959428319459955e-02  1.9213591012026732e-02
                        -7.4401568216905647e-02  4.1644509267467300e-01  4.6888089566270975e-02  2.0160947792416326e-02  3.5851523657998180e-02  2.2172389248487891e-02 -2.1478352136514831e-01 -3.2026609781621984e-01
                        -1.3882837330819206e-01  1.2232261895203762e-01
                        -8.1436824584802253e-02  4.2281559861297080e-01  4.3714688964879012e-02  2.6902243179175552e-02  4.5959428319469808e-02  1.9213591012055310e-02 -1.3882837330851450e-01  1.2232261895299264e-01
                        -1.9996072545538335e-01 -3.1621828240397143e-01
1.207474747474748e+01 -2.4472492531909970e-01  1.0988605183247029e-01 -9.9454060479434336e-02  4.3595479465117304e-01 -8.4556397418016682e-02  4.1908096515755622e-01 -7.0076096586689576e-02  4.1714273354557108e-01
                        -7.7066995656621146e-02  4.2350690043397682e-01
                        -9.9454060479551396e-02  4.3595479465115333e-01 -2.2400512601064268e-01 -3.3599469359135664e-01 -1.5324421993518966e-01  1.1494657830378129e-01  4.7120901337072980e-02  1.9198207776088664e-02
                         4.4002772986945118e-02  2.5965436099487059e-02
                        -8.4556397418144302e-02  4.1908096515775384e-01 -1.5324421993533277e-01  1.1494657830400756e-01 -2.2691172554713640e-01 -3.1361953700614181e-01  3.6053385775723021e-02  2.1317758377294441e-02
                         4.6174163111725820e-02  1.8273669919960326e-02
                        -7.0076096586875553e-02  4.1714273354591747e-01  4.7120901336740878e-02  1.9198207776826511e-02  3.6053385775639490e-02  2.1317758377191687e-02 -2.1680946191199577e-01 -3.1866728966474189e-01
                        -1.3833836957994441e-01  1.2365473907393609e-01
                        -7.7066995656660045e-02  4.2350690043383032e-01  4.4002772987119007e-02  2.5965436099119447e-02  4.6174163111739081e-02  1.8273669919986472e-02 -1.3833836958019746e-01  1.2365473907484248e-01
                        -2.0203468672319860e-01 -3.1477963330248343e-01
1.207878787878788e+01 -2.4377034976922715e-01  1.1376050608684615e-01 -9.5008010476330812e-02  4.3687863255853965e-01 -8.0267021086319640e-02  4.1989886662712278e-01 -6.5745808087035743e-02  4.1779735947787106e-01
                        -7.2693649173089597e-02  4.2415470122837218e-01
                        -9.5008010476444693e-02  4.3687863255852594e-01 -2.2631766650785742e-01 -3.3424786278858515e-01 -1.5288044690949731e-01  1.1649423748589452e-01  4.7336658167901530e-02  1.8233312323002602e-02
                         4.4274235339896301e-02  2.5026009198441827e-02
                        -8.0267021086426971e-02  4.1989886662731218e-01 -1.5288044690961522e-01  1.1649423748610789e-01 -2.2896196446214839e-01 -3.1185884636240779e-01  3.6239506483125634e-02  2.0461522299438317e-02
                         4.6372314013708185e-02  1.7331942623435338e-02
                        -6.5745808087188370e-02  4.1779735947819752e-01  4.7336658167632904e-02  1.8233312323701765e-02  3.6239506483038447e-02  2.0461522299347206e-02 -2.1881432049533620e-01 -3.1704363025840177e-01
                        -1.3782837158816158e-01  1.2499793674418240e-01
                        -7.2693649173133035e-02  4.2415470122823712e-01  4.4274235340039367e-02  2.5026009198092627e-02  4.6372314013724519e-02  1.7331942623458812e-02 -1.3782837158834785e-01  1.2499793674503797e-01
                        -2.0408896295722004e-01 -3.1331538569792305e-01
1.208282828282828e+01 -2.4274698814666448e-01  1.1759913350338384e-01 -9.0555719125312739e-02  4.3776002671890235e-01 -7.5971527897737895e-02  4.2067588235620479e-01 -6.1411057884651010e-02  4.1840902053516366e-01
                        -6.8317149854922779e-02  4.2475908465146683e-01
                        -9.0555719125422540e-02  4.3776002671889391e-01 -2.2860747116994193e-01 -3.3247174982325456e-01 -1.5249422654239175e-01  1.1805515287636673e-01  4.7535347566485787e-02  1.7266486033763337e-02
                         4.4529062976864264e-02  2.4084175149361311e-02
                        -7.5971527897825963e-02  4.2067588235638542e-01 -1.5249422654248562e-01  1.1805515287656733e-01 -2.3098922957774498e-01 -3.1007244661218136e-01  3.6409878330348124e-02  1.9603892857422471e-02
                         4.6553874609637405e-02  1.6388626355652410e-02
                        -6.1411057884771136e-02  4.1840902053547008e-01  4.7535347566278037e-02  1.7266486034422792e-02  3.6409878330257932e-02  1.9603892857342889e-02 -2.2079766504486964e-01 -3.1539533704009193e-01
                        -1.3729799582689239e-01  1.2635198830616665e-01
                        -6.8317149854970519e-02  4.2475908465134316e-01  4.4529062976977611e-02  2.4084175149031030e-02  4.6553874609656327e-02  1.6388626355673036e-02 -1.3729799582701502e-01  1.2635198830696986e-01
                        -2.0612311625520241e-01 -3.1182574842048993e-01
1.208686868686869e+01 -2.4165571484100615e-01  1.2140067687354450e-01 -8.6097495179986341e-02  4.3859904255735127e-01 -7.1670209235625254e-02  4.2141205690625938e-01 -5.7072196905619862e-02  4.1897776724360891e-01
                        -6.3937857506792956e-02  4.2532013499132432e-01
                        -8.6097495180091174e-02  4.3859904255734738e-01 -2.3087404679318105e-01 -3.3066656732361238e-01 -1.5208514283912861e-01  1.1962909454526489e-01  4.7716957398226817e-02  1.6297953188043779e-02
                         4.4767242870354593e-02  2.3140146148954533e-02
                        -7.1670209235695170e-02  4.2141205690643108e-01 -1.5208514283919966e-01  1.1962909454545301e-01 -2.3299307830216159e-01 -3.0826056162090071e-01  3.6564494244015582e-02  1.8745081672344815e-02
                         4.6718838800222720e-02  1.5443937968700132e-02
                        -5.7072196905708694e-02  4.1897776724389540e-01  4.7716957398076722e-02  1.6297953188663082e-02  3.6564494243923142e-02  1.8745081672276530e-02 -2.2275906305190166e-01 -3.1372263530801503e-01
                        -1.3674685838333347e-01  1.2771666215950414e-01
                        -6.3937857506844858e-02  4.2532013499121213e-01  4.4767242870439469e-02  2.3140146148643410e-02  4.6718838800243745e-02  1.5443937968717836e-02 -1.3674685838339629e-01  1.2771666216025440e-01
                        -2.0813670841708543e-01 -3.1031093816151922e-01
1.209090909090909e+01 -2.4049742456747089e-01  1.2516389815481849e-01 -8.1633642023769770e-02  4.3939574476167997e-01 -6.7363351850684622e-02  4.2210743390118549e-01 -5.2729571930498473e-02  4.1950365042504478e-01
                        -5.9556127113028934e-02  4.2583793699006356e-01
                        -8.1633642023868899e-02  4.3939574476167997e-01 -2.3311689884782294e-01 -3.2883253621807773e-01 -1.5165277862554427e-01  1.2121582446370847e-01  4.7881475851717072e-02  1.5327937856470783e-02
                         4.4988761970758129e-02  2.2194134038792512e-02
                        -6.7363351850737690e-02  4.2210743390134842e-01 -1.5165277862559395e-01  1.2121582446388481e-01 -2.3497306707974613e-01 -3.0642342296355579e-01  3.6703347501101741e-02  1.7885300251353303e-02
                         4.6867200769733747e-02  1.4498094043586800e-02
                        -5.2729571930557537e-02  4.1950365042531201e-01  4.7881475851621051e-02  1.5327937857050212e-02  3.6703347501007878e-02  1.7885300251295876e-02 -2.2469808167773594e-01 -3.1202575833079926e-01
                        -1.3617457504036803e-01  1.2909171864590568e-01
                        -5.9556127113084723e-02  4.2583793698996303e-01  4.4988761970816103e-02  2.2194134038500467e-02  4.6867200769756326e-02  1.4498094043601598e-02 -1.3617457504037528e-01  1.2909171864660304e-01
                        -2.1012930105416117e-01 -3.0877117957755129e-01
1.209494949494950e+01 -2.3927303191802976e-01  1.2888757868518713e-01 -7.7164457781569815e-02  4.4015019707539177e-01 -6.3051237972918811e-02  4.2276205584023119e-01 -4.8383525695124788e-02  4.1998672103354573e-01
                        -5.5172308939088047e-02  4.2631257566830105e-01
                        -7.7164457781662463e-02  4.4015019707539482e-01 -2.3533553156941500e-01 -3.2696988587512849e-01 -1.5119671563282933e-01  1.2281509636060013e-01  4.8028891408631917e-02  1.4356664015634128e-02
                         4.5193607170002342e-02  2.1246350428899833e-02
                        -6.3051237972956378e-02  4.2276205584038568e-01 -1.5119671563285927e-01  1.2281509636076553e-01 -2.3692875148152964e-01 -3.0456127005951861e-01  3.6826431707385969e-02  1.7024760096964426e-02
                         4.6998954957725811e-02  1.3551311002450300e-02
                        -4.8383525695155624e-02  4.1998672103379464e-01  4.8028891408585898e-02  1.4356664016174629e-02  3.6826431707291524e-02  1.7024760096917269e-02 -2.2661428786547580e-01 -3.1030494746278736e-01
                        -1.3558076138232061e-01  1.3047690993369385e-01
                        -5.5172308939147457e-02  4.2631257566821196e-01  4.5193607170035052e-02  2.1246350428626541e-02  4.6998954957749306e-02  1.3551311002462214e-02 -1.3558076138227701e-01  1.3047690993433925e-01
                        -2.1210045570119668e-01 -3.0720670539443184e-01
1.209898989898990e+01 -2.3798347091313612e-01  1.3257051938519232e-01 -7.2690235438098785e-02  4.4086246209340957e-01 -5.8734145429729719e-02  4.2337596391347765e-01 -4.4034396996939423e-02  4.2042702999519477e-01
                        -5.0786748638768739e-02  4.2674413615302920e-01
                        -7.2690235438184245e-02  4.4086246209341479e-01 -2.3752944805349618e-01 -3.2507885424447003e-01 -1.5071653458597456e-01  1.2442665557688638e-01  4.8159192818509569e-02  1.3384355665350546e-02
                         4.5381765270257161e-02  2.0297006823754057e-02
                        -5.8734145429753401e-02  4.2337596391362375e-01 -1.5071653458598652e-01  1.2442665557704193e-01 -2.3885968629944326e-01 -3.0267435030844941e-01  3.6933740780690900e-02  1.6163672818260127e-02
                         4.7114096035522281e-02  1.2603805222855608e-02
                        -4.4034396996943878e-02  4.2042702999542664e-01  4.8159192818509243e-02  1.3384355665853723e-02  3.6933740780596754e-02  1.6163672818222497e-02 -2.2850724845529313e-01 -3.0856045225949508e-01
                        -1.3496503290410919e-01  1.3187197990092980e-01
                        -5.0786748638831383e-02  4.2674413615295126e-01  4.5381765270266439e-02  2.0297006823498880e-02  4.7114096035546130e-02  1.2603805222864813e-02 -1.3496503290401984e-01  1.3187197990152491e-01
                        -2.1404973393156104e-01 -3.0561775651145345e-01
1.210303030303031e+01 -2.3662969455444124e-01  1.3621154094758287e-01 -6.8211262962914077e-02  4.4153260106064451e-01 -5.4412347770251356e-02  4.2394919782004303e-01 -3.9682520806855415e-02  4.2082462805121468e-01
                        -4.6399787367189887e-02  4.2713270350907884e-01
                        -6.8211262962991806e-02  4.4153260106065073e-01 -2.3969815035372949e-01 -3.2315968799953965e-01 -1.5021181529611943e-01  1.2605023891728750e-01  4.8272369078545062e-02  1.2411236948090171e-02
                         4.5553222957819453e-02  1.9346314750597258e-02
                        -5.4412347770262742e-02  4.2394919782018148e-01 -1.5021181529611510e-01  1.2605023891743461e-01 -2.4076542564426562e-01 -3.0076291922730575e-01  3.7025268939013936e-02  1.5302250243863162e-02
                         4.7212618887570564e-02  1.1655793154089496e-02
                        -3.9682520806835417e-02  4.2082462805143073e-01  4.8272369078585807e-02  1.2411236948558259e-02  3.7025268938920962e-02  1.5302250243834133e-02 -2.3037653030322197e-01 -3.0679253059324740e-01
                        -1.3432700512399381e-01  1.3327666401711630e-01
                        -4.6399787367255391e-02  4.2713270350901195e-01  4.5553222957807324e-02  1.9346314750359257e-02  4.7212618887594079e-02  1.1655793154096247e-02 -1.3432700512386397e-01  1.3327666401766364e-01
                        -2.1597669747540471e-01 -3.0400458210555747e-01
1.210707070707071e+01 -2.3521267437890178e-01  1.3980948401448640e-01 -6.3727823442302670e-02  4.4216067367358131e-01 -5.0086114396044996e-02  4.2448179558916110e-01 -3.5328228386753251e-02  4.2117956560460829e-01
                        -4.2011761899600854e-02  4.2747836257432970e-01
                        -6.3727823442372142e-02  4.4216067367358786e-01 -2.4184113958354800e-01 -3.2121264268142879e-01 -1.4968213675705039e-01  1.2768557449943080e-01  4.8368409418523710e-02  1.1437532270477311e-02
                         4.5707966782301102e-02  1.8394485889969489e-02
                        -5.0086114396045642e-02  4.2448179558929289e-01 -1.4968213675703168e-01  1.2768557449957102e-01 -2.4264552304737685e-01 -2.9882724058850313e-01  3.7101010693667051e-02  1.4440704536594254e-02
                         4.7294518597789978e-02  1.0707491435365993e-02
                        -3.5328228386710861e-02  4.2117956560481096e-01  4.8368409418600794e-02  1.1437532270913195e-02  3.7101010693576138e-02  1.4440704536572754e-02 -2.3222170040352480e-01 -3.0500144876901897e-01
                        -1.3366629370013561e-01  1.3469068922344160e-01
                        -4.2011761899668904e-02  4.2747836257427335e-01  4.5707966782269571e-02  1.8394485889747479e-02  4.7294518597812502e-02  1.0707491435370611e-02 -1.3366629369997077e-01  1.3469068922394439e-01
                        -2.1788090834092971e-01 -3.0236743973563540e-01
1.211111111111111e+01 -2.3373340001470169e-01  1.4336320934211472e-01 -5.9240195218083880e-02  4.4274673788507868e-01 -4.5755710698233427e-02  4.2497379340431651e-01 -3.0971847412627963e-02  4.2149189257049469e-01
                        -3.7623004756036478e-02  4.2778119779884771e-01
                        -5.9240195218144720e-02  4.4274673788508456e-01 -2.4395791602142991e-01 -3.1923798284428190e-01 -1.4912707724610996e-01  1.2933238160035124e-01  4.8447303291027512e-02  1.0463466426760142e-02
                         4.5845983141252614e-02  1.7441732208357444e-02
                        -4.5755710698224983e-02  4.2497379340444225e-01 -1.4912707724607860e-01  1.2933238160048632e-01 -2.4449953156643217e-01 -2.9686758655925582e-01  3.7160960847544756e-02  1.3579248309698842e-02
                         4.7359790441037018e-02  9.7591170158401221e-03
                        -3.0971847412565392e-02  4.2149189257068564e-01  4.8447303291136126e-02  1.0463466427167261e-02  3.7160960847456730e-02  1.3579248309683684e-02 -2.3404232601471434e-01 -3.0318748164048953e-01
                        -1.3298251455119084e-01  1.3611377381155557e-01
                        -3.7623004756106568e-02  4.2778119779880130e-01  4.5845983141203799e-02  1.7441732208149978e-02  4.7359790441057939e-02  9.7591170158430329e-03 -1.3298251455099652e-01  1.3611377381201772e-01
                        -2.1976192893882329e-01 -3.0070659544695350e-01
1.211515151515152e+01 -2.3219287873943181e-01  1.4687159795298085e-01 -5.4748652033459133e-02  4.4329084971258476e-01 -4.1421398201207396e-02  4.2542522543063166e-01 -2.6613702103466523e-02  4.2176165823032385e-01
                        -3.3233844331881784e-02  4.2804129308815031e-01
                        -5.4748652033511098e-02  4.4329084971258897e-01 -2.4604797921990487e-01 -3.1723598220225974e-01 -1.4854621442979699e-01  1.3099037050031698e-01  4.8509040367050747e-02  9.4892647241502232e-03
                         4.5967258270357927e-02  1.6488266092857581e-02
                        -4.1421398201191575e-02  4.2542522543075267e-01 -1.4854621442975494e-01  1.3099037050044893e-01 -2.4632700389505668e-01 -2.9488423784215112e-01  3.7205114498642236e-02  1.2718094744536203e-02
                         4.7408429879815840e-02  8.8108872763332062e-03
                        -2.6613702103385869e-02  4.2176165823050538e-01  4.8509040367186049e-02  9.4892647245325458e-03  3.7205114498557929e-02  1.2718094744526058e-02 -2.3583797478929869e-01 -3.0135091272634679e-01
                        -1.3227528398118196e-01  1.3754562730086556e-01
                        -3.3233844331953651e-02  4.2804129308811317e-01  4.5967258270293951e-02  1.6488266092662969e-02  4.7408429879834554e-02  8.8108872763348715e-03 -1.3227528398096364e-01  1.3754562730129166e-01
                        -2.2161932220991315e-01 -2.9902232387574690e-01
1.211919191919192e+01 -2.3059213504099582e-01  1.5033355127565912e-01 -5.0253463185996924e-02  4.4379306305000443e-01 -3.7083434712996674e-02  4.2583612364573142e-01 -2.2254113355892662e-02  4.2198891109019304e-01
                        -2.8844605034371903e-02  4.2825873165081707e-01
                        -5.0253463186039835e-02  4.4379306305000610e-01 -2.4811082811842844e-01 -3.1520692377814380e-01 -1.4793912547435370e-01  1.3265924232396514e-01  4.8553610537165490e-02  8.5151531099177565e-03
                         4.6071778239339445e-02  1.5534300487739398e-02
                        -3.7083434712975046e-02  4.2583612364584900e-01 -1.4793912547430271e-01  1.3265924232409593e-01 -2.4812749247669233e-01 -2.9287748381699985e-01  3.7233467048949732e-02  1.1857457709609557e-02
                         4.7440432566366778e-02  7.8630201526585022e-03
                        -2.2254113355796062e-02  4.2198891109036796e-01  4.8553610537322704e-02  8.5151531102796822e-03  3.7233467048869824e-02  1.1857457709603003e-02 -2.3760821490734840e-01 -2.9949203432685950e-01
                        -1.3154421880889783e-01  1.3898595031436511e-01
                        -2.8844605034444984e-02  4.2825873165078832e-01  4.6071778239262430e-02  1.5534300487555767e-02  4.7440432566382668e-02  7.8630201526594945e-03 -1.3154421880866085e-01  1.3898595031476030e-01
                        -2.2345265175613260e-01 -2.9731490835401914e-01
1.212323232323232e+01 -2.2893221018171103e-01  1.5374799127213559e-01 -4.5754893687841816e-02  4.4425342948346758e-01 -3.2742074482398437e-02  4.2620651767432616e-01 -1.7893398884616281e-02  4.2217369874349620e-01
                        -2.4455607425048438e-02  4.2843359585068469e-01
                        -4.5754893687875643e-02  4.4425342948346574e-01 -2.5014596116027688e-01 -3.1315110005365576e-01 -1.4730538716164732e-01  1.3433868887874650e-01  4.8581003918382930e-02  7.5413583001221612e-03
                         4.6159528953718776e-02  1.4580049032787663e-02
                        -3.2742074482372464e-02  4.2620651767444162e-01 -1.4730538716158911e-01  1.3433868887887826e-01 -2.4990054962274322e-01 -2.9084762268399977e-01  3.7246014218851577e-02  1.0997551880810176e-02
                         4.7455794350269725e-02  6.9157342604302639e-03
                        -1.7893398884505817e-02  4.2217369874366711e-01  4.8581003918557554e-02  7.5413583004684051e-03  3.7246014218776761e-02  1.0997551880805766e-02 -2.3935261521399265e-01 -2.9761114764074226e-01
                        -1.3078893650208712e-01  1.4043443445302317e-01
                        -2.4455607425122407e-02  4.2843359585066376e-01  4.6159528953630756e-02  1.4580049032613038e-02  4.7455794350282340e-02  6.9157342604311521e-03 -1.3078893650183659e-01  1.4043443445339296e-01
                        -2.2526148197489262e-01 -2.9558464101458393e-01
1.212727272727273e+01 -2.2721416176610879e-01  1.5711386055280727e-01 -4.1253204433250409e-02  4.4467199811127911e-01 -2.8397568362969673e-02  4.2653643462677926e-01 -1.3531873368734066e-02  4.2231606773815872e-01
                        -2.0067168368208099e-02  4.2856596706388173e-01
                        -4.1253204433275299e-02  4.4467199811127278e-01 -2.5215287641362272e-01 -3.1106881312158013e-01 -1.4664457601067543e-01  1.3602839249069043e-01  4.8591210866859177e-02  6.5681079098533074e-03
                         4.6230496162579869e-02  1.3625726203299892e-02
                        -2.8397568362940918e-02  4.2653643462689411e-01 -1.4664457601061151e-01  1.3602839249082527e-01 -2.5164572763517018e-01 -2.8879496160826407e-01  3.7242752067161995e-02  1.0138592862743913e-02
                         4.7454511291703028e-02  5.9692490212348084e-03
                        -1.3531873368611756e-02  4.2231606773832830e-01  4.8591210867046909e-02  6.5681079101887994e-03  3.7242752067092731e-02  1.0138592862740145e-02 -2.4107074536095885e-01 -2.9570856288234276e-01
                        -1.3000905531672399e-01  1.4189076216877222e-01
                        -2.0067168368282595e-02  4.2856596706386785e-01  4.6230496162482829e-02  1.3625726203132106e-02  4.7454511291711854e-02  5.9692490212362344e-03 -1.3000905531646464e-01  1.4189076216912247e-01
                        -2.2704537819696496e-01 -2.9383182289639609e-01
1.213131313131313e+01 -2.2543906331295946e-01  1.6043012247919472e-01 -3.6748652373573415e-02  4.4504881536834406e-01 -2.4050163984005769e-02  4.2682589894195000e-01 -9.1698486039438424e-03  4.2241606344873506e-01
                        -1.5679601185390350e-02  4.2865592554098259e-01
                        -3.6748652373589562e-02  4.4504881536833263e-01 -2.5413107169696092e-01 -3.0896037483978506e-01 -1.4595626840504117e-01  1.3772802583750962e-01  4.8584221996599106e-02  5.5956305848555710e-03
                         4.6284665472487163e-02  1.2671547451611271e-02
                        -2.4050163983975414e-02  4.2682589894206546e-01 -1.4595626840497303e-01  1.3772802583764962e-01 -2.5336257893369707e-01 -2.8671981686577080e-01  3.7223677016931404e-02  9.2807973110051248e-03
                         4.7436579680501731e-02  5.0237847900395233e-03
                        -9.1698486038116582e-03  4.2241606344890609e-01  4.8584221996795997e-02  5.5956305851853801e-03  3.7223677016868136e-02  9.2807973110005000e-03 -2.4276217595227501e-01 -2.9378459939919083e-01
                        -1.2920419444164197e-01  1.4335460663614424e-01
                        -1.5679601185465027e-02  4.2865592554097476e-01  4.6284665472382927e-02  1.2671547451448176e-02  4.7436579680506429e-02  5.0237847900421150e-03 -1.2920419444137826e-01  1.4335460663648106e-01
                        -2.2880390682798396e-01 -2.9205676405022413e-01
1.213535353535354e+01 -2.2360800383202359e-01  1.6369576125453911e-01 -3.2241490699695993e-02  4.4538392485540151e-01 -1.9700105928522657e-02  4.2707493223462634e-01 -4.8076336606288784e-03  4.2247372995366700e-01
                        -1.1293215815847071e-02  4.2870355027457857e-01
                        -3.2241490699703758e-02  4.4538392485538436e-01 -2.5608004470911905e-01 -3.0682610698718943e-01 -1.4524004072674668e-01  1.3943725177912131e-01  4.8560028204314931e-02  4.6241561343761291e-03
                         4.6322022367715300e-02  1.1717729349990581e-02
                        -1.9700105928491821e-02  4.2707493223474385e-01 -1.4524004072667557e-01  1.3943725177926847e-01 -2.5505065618784206e-01 -2.8462251399074356e-01  3.7188785887160694e-02  8.4243830552353759e-03
                         4.7401996061163867e-02  4.0795629836856591e-03
                        -4.8076336604885132e-03  4.2247372995384191e-01  4.8560028204517471e-02  4.6241561347052408e-03  3.7188785887103698e-02  8.4243830552284647e-03 -2.4442647869430639e-01 -2.9183958578990571e-01
                        -1.2837397414882687e-01  1.4482563162265474e-01
                        -1.1293215815921610e-02  4.2870355027457607e-01  4.6322022367605617e-02  1.1717729349830022e-02  4.7401996061164180e-02  4.0795629836900688e-03 -1.2837397414856255e-01  1.4482563162298415e-01
                        -2.3053663549373082e-01 -2.9025978364468208e-01
1.213939393939394e+01 -2.2172208740610186e-01  1.6690978200236378e-01 -2.7731969032087567e-02  4.4567736717341100e-01 -1.5347635918395254e-02  4.2728355314788502e-01 -4.4553504790049471e-04  4.2248910991801830e-01
                        -6.9083189830691279e-03  4.2870891887258722e-01
                        -2.7731969032087578e-02  4.4567736717338746e-01 -2.5799929316403741e-01 -3.0466634142179222e-01 -1.4449546949668679e-01  1.4115572318563008e-01  4.8518620700600264e-02  3.6539156651011970e-03
                         4.6342552236948859e-02  1.0764489734772158e-02
                        -1.5347635918364862e-02  4.2728355314800592e-01 -1.4449546949661385e-01  1.4115572318578606e-01 -2.5670951245395091e-01 -2.8250338792453611e-01  3.7138075930562231e-02  7.5695692228238513e-03
                         4.7350757263955080e-02  3.1368062103329548e-03
                        -4.4553504775362088e-04  4.2248910991819943e-01  4.8518620700805405e-02  3.6539156654343645e-03  3.7138075930511591e-02  7.5695692228132765e-03 -2.4606322655025770e-01 -2.8987386002251625e-01
                        -1.2751801594969397e-01  1.4630349135800752e-01
                        -6.9083189831431815e-03  4.2870891887258866e-01  4.6342552236835255e-02  1.0764489734612050e-02  4.7350757263950882e-02  3.1368062103398070e-03 -1.2751801594943224e-01  1.4630349135833526e-01
                        -2.3224313318931600e-01 -2.8844121007268880e-01
1.214343434343434e+01 -2.1978243277890944e-01  1.7007121083323762e-01 -2.3220333618448122e-02  4.4592917976346724e-01 -1.0992993006644504e-02  4.2745177721074490e-01  3.9161431164724380e-03  4.2246224448202668e-01
                        -2.5252143672827767e-03  4.2867210743763651e-01
                        -2.3220333618440982e-02  4.4592917976343727e-01 -2.5988831493059406e-01 -3.0248142024079944e-01 -1.4372213152221902e-01  1.4288308276289363e-01  4.8459991047581877e-02  2.6851417160002715e-03
                         4.6346240406615238e-02  9.8120478515468235e-03
                        -1.0992993006615347e-02  4.2745177721087035e-01 -1.4372213152214508e-01  1.4288308276305997e-01 -2.5833870131748271e-01 -2.8036278316601981e-01  3.7071544877507571e-02  6.7165763630666654e-03
                         4.7282860442265373e-02  2.1957383996812699e-03
                         3.9161431166244327e-03  4.2246224448221636e-01  4.8459991047787081e-02  2.6851417163418247e-03  3.7071544877463239e-02  6.7165763630512125e-03 -2.4767199389934152e-01 -2.8788776955318174e-01
                        -1.2663594275766049e-01  1.4778783040226412e-01
                        -2.5252143673561434e-03  4.2867210743764117e-01  4.6346240406499033e-02  9.8120478513852305e-03  4.7282860442256575e-02  2.1957383996911543e-03 -1.2663594275740397e-01  1.4778783040259574e-01
                        -2.3392297043245652e-01 -2.8660138105836408e-01
1.214747474747475e+01 -2.1779017294934586e-01  1.7317909489992389e-01 -1.8706827539020952e-02  4.4613939675264702e-01 -6.6364137769468548e-03  4.2757961670149930e-01  8.2770989302404074e-03  4.2239317315583474e-01
                         1.8557972160899387e-03  4.2859319045288857e-01
                        -1.8706827539007438e-02  4.4613939675261038e-01 -2.6174660817772738e-01 -3.0027169594292924e-01 -1.4291960405221010e-01  1.4461896287578713e-01  4.8384131203214921e-02  1.7180683939088462e-03
                         4.6333072181015303e-02  8.8606245012451332e-03
                        -6.6364137769194462e-03  4.2757961670163025e-01 -1.4291960405213583e-01  1.4461896287596493e-01 -2.5993777704078042e-01 -2.7820105392350847e-01  3.6989190986303912e-02  5.8656265716114098e-03
                         4.7198303116373463e-02  1.2565849338053159e-03
                         8.2770989303962879e-03  4.2239317315603453e-01  4.8384131203418231e-02  1.7180683942624730e-03  3.6989190986265658e-02  5.8656265715901247e-03 -2.4925235670079704e-01 -2.8588167144533461e-01
                        -1.2572737905734924e-01  1.4927828351311553e-01
                         1.8557972160174671e-03  4.2859319045289562e-01  4.6333072180897633e-02  8.8606245010804108e-03  4.7198303116360231e-02  1.2565849338186837e-03 -1.2572737905709983e-01  1.4927828351345582e-01
                        -2.3557571942101552e-01 -2.8474064376440128e-01
1.215151515151515e+01 -2.1574645477273072e-01  1.7623250244115971e-01 -1.4191690919601107e-02  4.4630804880620767e-01 -2.2781325503977781e-03  4.2766708051714025e-01  1.2637032524991187e-02  4.2228193372077738e-01
                         6.2344176320571088e-03  4.2847224067468048e-01
                        -1.4191690919582204e-02  4.4630804880616470e-01 -2.6357367152514066e-01 -2.9803753159294899e-01 -1.4208746493996993e-01  1.4636298536931211e-01  4.8291033572389029e-02  7.5293150966207478e-04
                         4.6303032889419754e-02  7.9104421869291841e-03
                        -2.2781325503723263e-03  4.2766708051727764e-01 -1.4208746493989585e-01  1.4636298536950190e-01 -2.6150629471658560e-01 -2.7601856426823734e-01  3.6891013099941673e-02  5.0169436149970492e-03
                         4.7097083223777231e-02  3.1957277842027329e-04
                         1.2637032525149864e-02  4.2228193372098871e-01  4.8291033572589237e-02  7.5293151003063413e-04  3.6891013099909095e-02  5.0169436149691826e-03 -2.5080389266296532e-01 -2.8385593248924967e-01
                        -1.2479195108076213e-01  1.5077447551242323e-01
                         6.2344176319857197e-03  4.2847224067468914e-01  4.6303032889301522e-02  7.9104421867600000e-03  4.7097083223759821e-02  3.1957277843752685e-04 -1.2479195108052081e-01  1.5077447551277603e-01
                        -2.3720095419500387e-01 -2.8285935489994263e-01
1.215555555555556e+01 -2.1365243856957064e-01  1.7923052281436147e-01 -9.6751611522302682e-03  4.4643516298659014e-01  2.0816184004750216e-03  4.2771417404931211e-01  1.6995645878682214e-02  4.2212856213763106e-01
                         1.0610351235856125e-02  4.2830932903238128e-01
                        -9.6751611522070905e-03  4.4643516298654118e-01 -2.6536900419990478e-01 -2.9577930098848537e-01 -1.4122529281448937e-01  1.4811476138773610e-01  4.8180691065013957e-02 -2.1003128542481514e-04
                         4.6256107940299399e-02  6.9617252610926252e-03
                         2.0816184004984820e-03  4.2771417404945589e-01 -1.4122529281441570e-01  1.4811476138793789e-01 -2.6304381042758485e-01 -2.7381568828938857e-01  3.6777010709454973e-02  4.1707530550834822e-03
                         4.6979199176247585e-02 -6.1506938561850868e-04
                         1.6995645878842825e-02  4.2212856213785405e-01  4.8180691065210314e-02 -2.1003128503958857e-04  3.6777010709427474e-02  4.1707530550486628e-03 -2.5232618141765206e-01 -2.8181092932202711e-01
                        -1.2382928699076709e-01  1.5227602115223349e-01
                         1.0610351235785881e-02  4.2830932903239066e-01  4.6256107940181271e-02  6.9617252609181154e-03  4.6979199176226429e-02 -6.1506938559718893e-04 -1.2382928699053423e-01  1.5227602115260158e-01
                        -2.3879825080326292e-01 -2.8095788082896500e-01
1.215959595959596e+01 -2.1150929774241792e-01  1.8217226651759399e-01 -5.1574731235245301e-03  4.4652076261969897e-01  6.4426086304961508e-03  4.2772089906725180e-01  2.1352642622504858e-02  4.2193309246224059e-01
                         1.4983304677058088e-02  4.2810452453588455e-01
                        -5.1574731234982577e-03  4.4652076261964468e-01 -2.6713210619930394e-01 -2.9349738882911669e-01 -1.4033266726040294e-01  1.4987389119198649e-01  4.8053097161251709e-02 -1.1705803629515898e-03
                         4.6192282882859259e-02  6.0147000732518677e-03
                         6.4426086305178799e-03  4.2772089906740207e-01 -1.4033266726032967e-01  1.4987389119219954e-01 -2.6454988141229807e-01 -2.7159281025063831e-01  3.6647184024035981e-02  3.3272823731496856e-03
                         4.6844649923764761e-02 -1.5471110307979270e-03
                         2.1352642622666774e-02  4.2193309246247490e-01  4.8053097161444194e-02 -1.1705803625494046e-03  3.6647184024012784e-02  3.3272823731079586e-03 -2.5381880470003176e-01 -2.7974704854795490e-01
                        -1.2283901707224054e-01  1.5378252498050149e-01
                         1.4983304676989155e-02  4.2810452453589409e-01  4.6192282882741742e-02  6.0147000730717201e-03  4.6844649923740461e-02 -1.5471110307724752e-03 -1.2283901707201554e-01  1.5378252498088602e-01
                        -2.4036718747507335e-01 -2.7903659767916689e-01
1.216363636363636e+01 -2.0931821840141482e-01  1.8505686520113168e-01 -6.3885945064819441e-04  4.4656486716895405e-01  1.0804609293410494e-02  4.2768725360820170e-01  2.5707727842135555e-02  4.2169555676896564e-01
                         1.9352986698046547e-02  4.2785789419117254e-01
                        -6.3885945062017342e-04  4.4656486716889549e-01 -2.6886247846025568e-01 -2.9119219088779441e-01 -1.3940916900712225e-01  1.5163996397551971e-01  4.7908245984066622e-02 -2.1284739809210307e-03
                         4.6111543476047137e-02  5.0695951176157675e-03
                         1.0804609293431029e-02  4.2768725360835758e-01 -1.3940916900704914e-01  1.5163996397574245e-01 -2.6602406623760788e-01 -2.6935032474822218e-01  3.6501534048044376e-02  2.4867610934422094e-03
                         4.6693435025496360e-02 -2.4763196516207168e-03
                         2.5707727842298213e-02  4.2169555676921011e-01  4.7908245984255894e-02 -2.1284739805031982e-03  3.6501534048024503e-02  2.4867610933940847e-03 -2.5528134653433299e-01 -2.7766468685924334e-01
                        -1.2182077393122956e-01  1.5529358120676257e-01
                         1.9352986697978899e-02  4.2785789419118170e-01  4.6111543475930418e-02  5.0695951174303533e-03  4.6693435025469673e-02 -2.4763196515913480e-03 -1.2182077393101119e-01  1.5529358120716297e-01
                        -2.4190734479691933e-01 -2.7709589145137109e-01
1.216767676767677e+01 -2.0708039899906036e-01  1.8788347166905531e-01  3.8804492752122915e-03  4.4656749211763380e-01  1.5167392906372052e-02  4.2761323187579414e-01  3.0060607873582869e-02  4.2141598508239869e-01
                         2.3719107927093835e-02  4.2756950292439866e-01
                         3.8804492752407185e-03  4.4656749211757241e-01 -2.7055962303571218e-01 -2.8886411418455049e-01 -1.3845438012756617e-01  1.5341255767897150e-01  4.7746132379257802e-02 -3.0834681475799680e-03
                         4.6013875765204687e-02  4.1266411805798882e-03
                         1.5167392906392112e-02  4.2761323187595446e-01 -1.3845438012749292e-01  1.5341255767920131e-01 -2.6746592497829375e-01 -2.6708863687043982e-01  3.6340062665047766e-02  1.6494209059186929e-03
                         4.6525554727972734e-02 -3.4024606337227023e-03
                         3.0060607873745846e-02  4.2141598508265077e-01  4.7746132379445035e-02 -3.0834681471498052e-03  3.6340062665030162e-02  1.6494209058653016e-03 -2.5671339342560429e-01 -2.7556425115705158e-01
                        -1.2077419270247383e-01  1.5680877356806183e-01
                         2.3719107927027527e-02  4.2756950292440743e-01  4.6013875765088801e-02  4.1266411803904078e-03  4.6525554727944597e-02 -3.4024606336898883e-03 -1.2077419270225999e-01  1.5680877356847528e-01
                        -2.4341830589469932e-01 -2.7513615812939174e-01
1.217171717171717e+01 -2.0479704997476653e-01  1.9065125987131734e-01  8.4002242379609404e-03  4.4652864886004906e-01  1.9530733107436381e-02  4.2749882414693607e-01  3.4410990093784177e-02  4.2109440531782549e-01
                         2.8081380666202520e-02  4.2723941351495953e-01
                         8.4002242379882571e-03  4.4652864885998667e-01 -2.7222304327843344e-01 -2.8651357716247611e-01 -1.3746788424693362e-01  1.5519123880389613e-01  4.7566752003139680e-02 -4.0353164858706395e-03
                         4.5899266166529479e-02  3.1860714877939497e-03
                         1.9530733107457017e-02  4.2749882414709872e-01 -1.3746788424685977e-01  1.5519123880412927e-01 -2.6887501940391945e-01 -2.6480816235854043e-01  3.6162772729027827e-02  8.1549578793271155e-04
                         4.6341010050614750e-02 -4.3252971236816089e-03
                         3.4410990093947158e-02  4.2109440531808146e-01  4.7566752003326621e-02 -4.0353164854337875e-03  3.6162772729011222e-02  8.1549578787582649e-04 -2.5811453455784694e-01 -2.7344615867274868e-01
                        -1.1969891126564280e-01  1.5832767519545654e-01
                         2.8081380666137613e-02  4.2723941351496753e-01  4.5899266166414265e-02  3.1860714876025126e-03  4.6341010050586225e-02 -4.3252971236461962e-03 -1.1969891126543065e-01  1.5832767519587776e-01
                        -2.4489965662166086e-01 -2.7315780379033239e-01
1.217575757575758e+01 -2.0246939340976020e-01  1.9335942488674512e-01  1.2920238138412057e-02  4.4644834460210520e-01  2.3894404406171875e-02  4.2734401668773342e-01  3.8758582706139591e-02  4.2073084323091453e-01
                         3.2439518673913120e-02  4.2686768653803170e-01
                         1.2920238138436702e-02  4.4644834460204430e-01 -2.7385224403254865e-01 -2.8414100986593221e-01 -1.3644926676196756e-01  1.5697556222593934e-01  4.7370101418033654e-02 -4.9837700987652965e-03
                         4.5767701559513541e-02  2.2481218505362791e-03
                         2.3894404406194336e-02  4.2734401668789557e-01 -1.3644926676189248e-01  1.5697556222617076e-01 -2.7025091317344269e-01 -2.6250932776890989e-01  3.5969668162883148e-02 -1.4777875407864793e-05
                         4.6139802878766650e-02 -5.2445898997815314e-03
                         3.8758582706302169e-02  4.2073084323116910e-01  4.7370101418222510e-02 -4.9837700983300856e-03  3.5969668162866245e-02 -1.4777875465672718e-05 -2.5948436199881536e-01 -2.7131083708933124e-01
                        -1.1859457047064417e-01  1.5984984848143963e-01
                         3.2439518673849553e-02  4.2686768653803925e-01  4.5767701559398716e-02  2.2481218503461187e-03  4.6139802878739082e-02 -5.2445898997447379e-03 -1.1859457047043037e-01  1.5984984848186035e-01
                        -2.4635098575235209e-01 -2.7116124471526615e-01
1.217979797979798e+01 -2.0009866269282753e-01  1.9600718289756094e-01  1.7440264929073586e-02  4.4632658227182886e-01  2.8258181927637335e-02  4.2714879167901704e-01  4.3103094521300324e-02  4.2032532237712339e-01
                         3.6793236943408851e-02  4.2645438031706173e-01
                         1.7440264929093986e-02  4.4632658227177235e-01 -2.7544673183337576e-01 -2.8174685412087647e-01 -1.3539811507113431e-01  1.5876507100786763e-01  4.7156178195724645e-02 -5.9285774357961465e-03
                         4.5619169387518213e-02  1.3130308110904515e-03
                         2.8258181927663016e-02  4.2714879167917452e-01 -1.3539811507105751e-01  1.5876507100809090e-01 -2.7159317203796357e-01 -2.6019257063640494e-01  3.5760754064350385e-02 -8.4116117251073486e-04
                         4.5921936064377999e-02 -6.1600972440337895e-03
                         4.3103094521462146e-02  4.2032532237736947e-01  4.7156178195917955e-02 -5.9285774353739357e-03  3.5760754064331726e-02 -8.4116117256606560e-04 -2.6082247091183275e-01 -2.6915872466285506e-01
                        -1.1746081437232966e-01  1.6137484494869928e-01
                         3.6793236943346706e-02  4.2645438031706939e-01  4.5619169387403416e-02  1.3130308109060157e-03  4.5921936064352777e-02 -6.1600972439972562e-03 -1.1746081437211023e-01  1.6137484494910789e-01
                        -2.4777188518293120e-01 -2.6914690750018572e-01
1.218383838383838e+01 -1.9768610219745084e-01  1.9859377115593999e-01  2.1960079542038474e-02  4.4616336044045257e-01  3.2621841149865445e-02  4.2691312715204388e-01  4.7444234733424726e-02  4.1987786408133787e-01
                         4.1142251476143796e-02  4.2599955088671249e-01
                         2.1960079542053007e-02  4.4616336044040372e-01 -2.7700601511593770e-01 -2.7933156371723894e-01 -1.3431401881617400e-01  1.6055929621286028e-01  4.6924981029037929e-02 -6.8694841610774902e-03
                         4.5453657766644201e-02  3.8103978683440287e-04
                         3.2621841149895928e-02  4.2691312715219187e-01 -1.3431401881609478e-01  1.6055929621306725e-01 -2.7290136405199628e-01 -2.5785833963872978e-01  3.5536036819465190e-02 -1.6634125484868492e-03
                         4.5687413534479228e-02 -7.0715748157412078e-03
                         4.7444234733585181e-02  4.1987786408156635e-01  4.6924981029238491e-02 -6.8694841606830002e-03  3.5536036819443340e-02 -1.6634125485352966e-03 -2.6212845977493671e-01 -2.6699027034377976e-01
                        -1.1629729047495260e-01  1.6290220512061807e-01
                         4.1142251476083046e-02  4.2599955088672115e-01  4.5453657766528960e-02  3.8103978666156890e-04  4.5687413534457953e-02 -7.0715748157070824e-03 -1.1629729047472330e-01  1.6290220512099912e-01
                        -2.4916195013814110e-01 -2.6711522916715369e-01
1.218787878787879e+01 -1.9523296697079226e-01  2.0111844794326758e-01  2.6479457610324431e-02  4.4595867325466043e-01  3.6985157635182529e-02  4.2663699693496415e-01  5.1781712692299850e-02  4.1938848741824547e-01
                         4.5486279051404746e-02  4.2550325196676458e-01
                         2.6479457610331505e-02  4.4595867325462313e-01 -2.7852960443268504e-01 -2.7689560459317009e-01 -1.3319657013543290e-01  1.6235775671856922e-01  4.6676509851677296e-02 -7.8062330231676025e-03
                         4.5271155603045232e-02 -5.4760678729787876e-04
                         3.6985157635219597e-02  4.2663699693509616e-01 -1.3319657013535105e-01  1.6235775671875005e-01 -2.7417505979371082e-01 -2.5550709476164180e-01  3.5295524223669994e-02 -2.4812876905895703e-03
                         4.5436240407582512e-02 -7.9787755269408421e-03
                         5.1781712692458140e-02  4.1938848741844548e-01  4.6676509851887878e-02 -7.8062330228194643e-03  3.5295524223643571e-02 -2.4812876906256665e-03 -2.6340193060772732e-01 -2.6480593389803236e-01
                        -1.1510364998668488e-01  1.6443145839400075e-01
                         4.5486279051345536e-02  4.2550325196677569e-01  4.5271155602929158e-02 -5.4760678745167934e-04  4.5436240407566914e-02 -7.9787755269118549e-03 -1.1510364998644133e-01  1.6443145839433465e-01
                        -2.5052077938531792e-01 -2.6506665727548961e-01
1.219191919191919e+01 -1.9274052243500031e-01  2.0358049252273402e-01  3.0998175182949426e-02  4.4571251038061338e-01  4.1347906755643822e-02  4.2632037061064842e-01  5.6115237671679669e-02  4.1885720920396508e-01
                         4.9825036992170023e-02  4.2496553494748335e-01
                         3.0998175182947549e-02  4.4571251038059223e-01 -2.8001701268091717e-01 -2.7443945502099665e-01 -1.3204536392940447e-01  1.6415995903246186e-01  4.6410765966461189e-02 -8.7385637271165315e-03
                         4.5071652718829167e-02 -1.4726613183197110e-03
                         4.1347906755689168e-02  4.2632037061075700e-01 -1.3204536392931976e-01  1.6415995903260461e-01 -2.7541383259457430e-01 -2.5313930746479030e-01  3.5039225610670716e-02 -3.2945394162375990e-03
                         4.5168423118134585e-02 -8.8814494200584980e-03
                         5.6115237671834489e-02  4.1885720920412328e-01  4.6410765966684454e-02 -8.7385637268375255e-03  3.5039225610638311e-02 -3.2945394162546271e-03 -2.6464248920627309e-01 -2.6260618602760993e-01
                        -1.1387954808451051e-01  1.6596212291452705e-01
                         4.9825036992112604e-02  4.2496553494749856e-01  4.5071652718712038e-02 -1.4726613184453535e-03  4.5168423118126431e-02 -8.8814494200380074e-03 -1.1387954808424831e-01  1.6596212291478946e-01
                        -2.5184797545578375e-01 -2.6300165003285053e-01
1.219595959595960e+01 -1.9021004410127926e-01  2.0597920508596512e-01  3.5516008434100382e-02  4.4542485696037881e-01  4.5709863412932004e-02  4.2596321348648675e-01  6.0444518634253638e-02  4.1828404399944974e-01
                         5.4158242927691544e-02  4.2438644888696087e-01
                         3.5516008434088059e-02  4.4542485696037920e-01 -2.8146775534042090e-01 -2.7196360579467860e-01 -1.3085999813888421e-01  1.6596539710900987e-01  4.6127752182083946e-02 -9.6662128090682538e-03
                         4.4855139986681267e-02 -2.3938729170214362e-03
                         4.5709863412987370e-02  4.2596321348656274e-01 -1.3085999813879678e-01  1.6596539710910047e-01 -2.7661725877884041e-01 -2.5075546084794842e-01  3.4767151989133348e-02 -4.1029175639740352e-03
                         4.4883969549138383e-02 -9.7793435481309150e-03
                         6.0444518634403144e-02  4.1828404399954999e-01  4.6127752182322145e-02 -9.6662128088858441e-03  3.4767151989093817e-02 -4.1029175639640258e-03 -2.6584974538644723e-01 -2.6039150849050163e-01
                        -1.1262464418979201e-01  1.6749370545547065e-01
                         5.4158242927636158e-02  4.2438644888698240e-01  4.4855139986563097e-02 -2.3938729171078463e-03  4.4883969549139632e-02 -9.7793435481229526e-03 -1.1262464418950706e-01  1.6749370545563189e-01
                        -2.5314314487399392e-01 -2.6092067640601901e-01
1.220000000000000e+01 -1.8764281729711266e-01  2.0831390669443134e-01  4.0032733366824585e-02  4.4509569358139395e-01  5.0070801753137620e-02  4.2556548657676802e-01  6.4769263993731924e-02  4.1766900412618013e-01
                         5.8485614553295748e-02  4.2376604052094147e-01
                         4.0032733366800598e-02  4.4509569358142176e-01 -2.8288135072186216e-01 -2.6946856041850287e-01 -1.2964007403612438e-01  1.6777355216934689e-01  4.5827472958515643e-02 -1.0588913513810822e-02
                         4.4621609473333018e-02 -3.3109872625109726e-03
                         5.0070801753204677e-02  4.2556548657680032e-01 -1.2964007403603503e-01  1.6777355216936901e-01 -2.7778491791335086e-01 -2.4835604981734560e-01  3.4479316187298964e-02 -4.9061688877359705e-03
                         4.4582889173048437e-02 -1.0672201857974045e-02
                         6.4769263993873491e-02  4.1766900412620389e-01  4.5827472958770377e-02 -1.0588913513757538e-02  3.4479316187251342e-02 -4.9061688876894868e-03 -2.6702331323607936e-01 -2.5816239421966702e-01
                        -1.1133860225478062e-01  1.6902570130027328e-01
                         5.8485614553242915e-02  4.2376604052097222e-01  4.4621609473214113e-02 -3.3109872625450079e-03  4.4582889173061024e-02 -1.0672201857983482e-02 -1.1133860225446950e-01  1.6902570130029818e-01
                        -2.5440589839482108e-01 -2.5882421623117274e-01
